NAME: distribution-lognormal_generation_type-euclidean_city_size-20_range-1.6_mutation_type-random_sampling_generation-38_iteration-842913.0
TYPE: TSP
DIMENSION: 20
EDGE_WEIGHT_TYPE: EUC_2D
COMMENT: Generation 38, Iteration 842913.0
NODE_COORD_SECTION
1 -1.100698 -0.178576
2 -0.423965 -1.122116
3 -2.941178 -1.598090
4 3.508875 1.015436
5 -0.756709 0.374821
6 -1.314714 10.704396
7 -0.181513 1.621632
8 -2.673938 -1.154811
9 0.946343 2.430798
10 -7.506279 -6.110319
11 -2.859935 -1.407909
12 1.897984 0.049632
13 0.895731 0.299635
14 11.331930 -4.156615
15 1.889769 -1.149761
16 -0.737597 -1.948738
17 -0.157841 1.934861
18 1.812671 -0.324996
19 -0.417810 -0.406245
20 -1.211124 1.126963
EOF