NAME: distribution-lognormal_generation_type-euclidean_city_size-20_range-2.0_mutation_type-random_sampling_generation-50_iteration-4408660.0
TYPE: TSP
DIMENSION: 20
EDGE_WEIGHT_TYPE: EUC_2D
COMMENT: Generation 50, Iteration 4408660.0
NODE_COORD_SECTION
1 -1.799523 1.016308
2 -1.516690 1.258723
3 -1.599169 -0.038802
4 -2.025668 2.896345
5 -1.615946 0.084303
6 -1.032154 -1.926200
7 -1.783554 0.570451
8 -1.717898 5.955071
9 -0.606940 0.934808
10 -2.106757 1.246032
11 -1.493954 0.153057
12 -2.992278 4.036452
13 27.823139 -0.526325
14 -1.805897 -0.380326
15 -0.867031 0.567417
16 -2.834729 -16.811151
17 1.484062 0.704583
18 -1.245793 0.686477
19 -1.366036 -1.404191
20 -0.897184 0.976969
EOF