NAME: distribution-uniform_generation_type-euclidean_city_size-30_range-60.0_mutation_type-random_sampling_generation-45_iteration-150133.0
TYPE: TSP
DIMENSION: 30
EDGE_WEIGHT_TYPE: EUC_2D
COMMENT: Generation 45, Iteration 150133.0
NODE_COORD_SECTION
1 -7.112708 2.938595
2 -6.697764 5.982699
3 -5.565983 -8.112050
4 -7.441523 7.862698
5 -3.235943 6.950717
6 1.187331 3.886978
7 1.634889 4.747697
8 -0.050923 6.358701
9 -0.971733 -5.402758
10 6.486772 0.161509
11 -9.879974 -0.455093
12 9.769314 -5.028832
13 -1.786247 -6.105685
14 9.513199 3.426791
15 -0.015618 1.754220
16 0.435890 -2.340578
17 -0.066574 2.150209
18 -7.230628 -9.162204
19 5.244182 6.818807
20 6.218425 -9.006533
21 -0.393360 1.855083
22 -8.614452 -2.512692
23 -0.993925 -9.345913
24 -0.924129 -3.243286
25 -3.696857 1.664582
26 7.120385 -2.478984
27 3.457619 -1.651352
28 0.862782 5.487377
29 8.926057 3.069505
30 3.821496 -0.270207
EOF