NAME: distribution-lognormal_generation_type-euclidean_city_size-20_range-0.8_mutation_type-random_sampling_generation-45_iteration-63.0
TYPE: TSP
DIMENSION: 20
EDGE_WEIGHT_TYPE: EUC_2D
COMMENT: Generation 45, Iteration 63.0
NODE_COORD_SECTION
1 1.846694 0.027483
2 -7.041573 -2.701004
3 -0.555233 1.887116
4 -6.517297 4.298423
5 -0.658652 2.547209
6 3.339669 1.899899
7 -0.608654 -2.622041
8 -0.804780 -0.072350
9 0.614353 -1.835392
10 2.542436 -1.046589
11 1.829954 0.301332
12 1.464896 0.974263
13 1.626180 -6.958211
14 -1.290043 -3.085206
15 1.209510 -0.845010
16 -2.455871 -0.161242
17 0.771433 0.706410
18 2.127474 3.402567
19 2.815188 2.115670
20 -0.255684 1.166671
EOF