NAME: distribution-uniform_generation_type-euclidean_city_size-20_range-35.0_mutation_type-random_sampling_generation-81_iteration-78.0
TYPE: TSP
DIMENSION: 20
EDGE_WEIGHT_TYPE: EUC_2D
COMMENT: Generation 81, Iteration 78.0
NODE_COORD_SECTION
1 -4.587981 -0.027702
2 7.337350 2.400221
3 2.026281 -0.026215
4 1.969199 -6.644338
5 4.632567 3.015487
6 0.971172 -0.757436
7 2.410588 -0.385758
8 -2.972996 7.729313
9 -3.214163 1.317525
10 -2.942309 -3.907284
11 -2.342880 -1.644863
12 3.464192 2.859406
13 -3.838417 1.109912
14 2.178509 -1.728404
15 1.230573 3.667487
16 2.659125 -5.285803
17 0.081342 1.180012
18 -2.746976 -3.462882
19 0.190182 -0.469027
20 -6.505356 1.060352
EOF