NAME: distribution-lognormal_generation_type-euclidean_city_size-20_range-0.4_mutation_type-random_sampling_generation-39_iteration-80.0
TYPE: TSP
DIMENSION: 20
EDGE_WEIGHT_TYPE: EUC_2D
COMMENT: Generation 39, Iteration 80.0
NODE_COORD_SECTION
1 -0.370655 -0.068320
2 1.114965 -2.250845
3 -0.226846 -0.071767
4 -3.172024 -0.292595
5 0.779195 0.068573
6 -0.961031 0.017935
7 0.832725 2.071429
8 3.041118 -0.797698
9 1.264549 -0.702061
10 -2.051882 -0.951118
11 -0.147012 3.270873
12 -0.102236 0.326378
13 0.243576 0.255253
14 3.343054 2.239932
15 -0.735331 -0.883822
16 -1.425926 -0.518618
17 0.264070 -0.124544
18 -1.272101 0.569738
19 1.350107 -3.317176
20 -1.768315 1.158453
EOF