NAME: distribution-lognormal_generation_type-euclidean_city_size-20_range-2.0_mutation_type-random_sampling_generation-19_iteration-876918.0
TYPE: TSP
DIMENSION: 20
EDGE_WEIGHT_TYPE: EUC_2D
COMMENT: Generation 19, Iteration 876918.0
NODE_COORD_SECTION
1 2.575584 -1.073765
2 2.549190 -1.024168
3 2.515308 -0.969138
4 2.234183 -1.387307
5 1.538650 -0.953398
6 2.287019 -1.459429
7 3.861174 25.758986
8 3.210231 -2.105471
9 2.930154 -0.643036
10 2.265860 -1.441149
11 3.429764 -7.963610
12 2.504964 -0.956537
13 2.534647 -1.010966
14 2.761967 -1.569918
15 2.496684 -0.940277
16 2.479946 -0.930415
17 3.162411 -0.148546
18 -50.305380 0.518373
19 2.626173 -0.148838
20 2.341471 -1.551391
EOF