NAME: distribution-uniform_generation_type-euclidean_city_size-30_range-95.0_mutation_type-random_sampling_generation-99_iteration-115489.0
TYPE: TSP
DIMENSION: 30
EDGE_WEIGHT_TYPE: EUC_2D
COMMENT: Generation 99, Iteration 115489.0
NODE_COORD_SECTION
1 7.062970 -0.404722
2 3.674768 8.723536
3 -7.060221 -12.532367
4 0.411770 -6.948725
5 8.458423 7.529579
6 -9.013008 3.449291
7 2.205753 4.155248
8 11.916370 2.716747
9 -12.207292 4.224822
10 8.625391 11.719951
11 -15.621466 9.503312
12 2.934468 0.051045
13 -5.713111 -12.427750
14 -0.755607 -4.726797
15 -8.035429 2.878697
16 -2.069792 -11.920458
17 -2.125441 -4.345947
18 -5.415215 -0.673837
19 0.993179 10.353934
20 11.505588 -0.784531
21 -8.031536 10.964381
22 -4.265565 -9.196550
23 -10.175995 6.216119
24 -4.600768 -12.603120
25 -6.239864 4.278799
26 12.606230 -11.950328
27 6.025729 2.307752
28 5.659824 -4.402659
29 14.674884 4.401100
30 4.574961 -0.556526
EOF