NAME: distribution-uniform_generation_type-euclidean_city_size-20_range-10.0_mutation_type-random_sampling_generation-87_iteration-78.0
TYPE: TSP
DIMENSION: 20
EDGE_WEIGHT_TYPE: EUC_2D
COMMENT: Generation 87, Iteration 78.0
NODE_COORD_SECTION
1 2.686232 -1.286540
2 -1.987482 0.653366
3 0.584996 1.241881
4 -0.630922 0.123842
5 0.808930 -1.093026
6 -3.113283 -0.080261
7 -1.031271 0.070576
8 1.046854 -3.413960
9 1.382895 -1.114755
10 1.606999 -0.382815
11 -2.649361 -1.274097
12 -2.394701 2.172943
13 -1.847117 -2.097621
14 0.386465 1.222463
15 1.546200 0.860578
16 1.792467 0.514942
17 -0.535227 -1.482484
18 1.766135 2.190896
19 0.172463 0.799648
20 0.408728 2.374425
EOF