NAME: distribution-uniform_generation_type-euclidean_city_size-20_range-20.0_mutation_type-random_sampling_generation-90_iteration-62.0
TYPE: TSP
DIMENSION: 20
EDGE_WEIGHT_TYPE: EUC_2D
COMMENT: Generation 90, Iteration 62.0
NODE_COORD_SECTION
1 -2.696707 -1.360838
2 1.663328 2.221387
3 -1.084360 3.652579
4 1.786350 0.609169
5 -1.337201 -1.332257
6 -1.472569 2.319313
7 4.467391 0.584127
8 -1.599765 -0.944824
9 2.383818 -0.087586
10 -0.092791 -3.483888
11 0.141070 -1.531209
12 0.170183 -2.624708
13 1.409412 -0.340927
14 -1.144687 1.611051
15 -4.346685 -0.283483
16 -4.618375 0.162573
17 2.939603 -1.364462
18 0.930664 -5.228904
19 5.094265 3.061788
20 -2.592942 4.361100
EOF