NAME: distribution-lognormal_generation_type-euclidean_city_size-20_range-0.4_mutation_type-random_sampling_generation-86_iteration-70.0
TYPE: TSP
DIMENSION: 20
EDGE_WEIGHT_TYPE: EUC_2D
COMMENT: Generation 86, Iteration 70.0
NODE_COORD_SECTION
1 -0.491372 -2.180033
2 -0.166610 0.653678
3 0.491589 -0.802249
4 2.194907 -0.853678
5 -2.801141 -1.095464
6 0.697672 0.051032
7 -0.001490 0.322760
8 -0.148895 0.867085
9 0.057278 0.786159
10 -0.100915 -0.505238
11 -0.320856 1.424637
12 -2.968877 -0.665372
13 1.883382 1.396493
14 -1.372068 -1.673645
15 0.341865 0.651231
16 1.948896 -1.974505
17 2.004057 -0.591939
18 0.205946 -0.566586
19 -0.837554 1.589822
20 -0.615814 3.165811
EOF