NAME: distribution-uniform_generation_type-euclidean_city_size-30_range-95.0_mutation_type-random_sampling_generation-34_iteration-125422.0
TYPE: TSP
DIMENSION: 30
EDGE_WEIGHT_TYPE: EUC_2D
COMMENT: Generation 34, Iteration 125422.0
NODE_COORD_SECTION
1 3.230099 -11.215968
2 -9.431580 -16.817658
3 -2.134439 3.574350
4 -2.773859 12.577910
5 7.041949 -6.870321
6 12.549155 8.631607
7 -0.993338 1.624288
8 -12.436671 -3.200291
9 12.230697 1.159822
10 2.367164 6.168980
11 -4.586747 2.269853
12 -16.264922 -3.780628
13 11.859079 -6.286030
14 -7.673146 4.806309
15 -3.053720 7.805601
16 2.582537 3.180170
17 0.901001 -7.035874
18 3.413039 9.775434
19 0.612172 11.235561
20 7.474415 0.813381
21 -0.407229 -4.269164
22 3.303953 -6.410021
23 -4.027037 -8.577771
24 11.161042 -5.756161
25 3.890957 -8.551560
26 -12.596606 6.160264
27 -0.195606 -1.320838
28 -8.968727 -1.119476
29 -6.186973 8.184948
30 9.113340 3.243285
EOF