NAME: distribution-uniform_generation_type-euclidean_city_size-30_range-75.0_mutation_type-random_sampling_generation-49_iteration-269451.0
TYPE: TSP
DIMENSION: 30
EDGE_WEIGHT_TYPE: EUC_2D
COMMENT: Generation 49, Iteration 269451.0
NODE_COORD_SECTION
1 1.738439 -1.881848
2 10.179952 7.730784
3 0.721345 -0.025735
4 -5.957285 5.434746
5 9.157740 7.101962
6 6.911297 -11.273295
7 -0.221023 -4.032005
8 -4.523410 -2.375381
9 -10.203331 0.289375
10 -9.632758 7.219395
11 -7.147992 -0.614171
12 -0.136761 -3.087362
13 11.827202 -5.746062
14 5.428037 -4.122813
15 -0.221373 -3.041762
16 -12.031371 6.069870
17 7.358759 -5.487818
18 -7.968204 -4.711783
19 -1.478326 -11.236071
20 -3.570968 -11.999170
21 4.818525 8.198151
22 -7.201817 -2.022546
23 4.642990 8.380574
24 -1.725260 6.030002
25 -0.894803 5.149021
26 4.751379 6.366038
27 -1.609099 -3.649758
28 4.088551 2.576977
29 5.806834 2.430363
30 -2.907266 2.330321
EOF