NAME: distribution-uniform_generation_type-euclidean_city_size-20_range-15.0_mutation_type-random_sampling_generation-49_iteration-91.0
TYPE: TSP
DIMENSION: 20
EDGE_WEIGHT_TYPE: EUC_2D
COMMENT: Generation 49, Iteration 91.0
NODE_COORD_SECTION
1 -1.674871 0.822186
2 0.956875 -0.852681
3 -3.701834 -1.170971
4 -0.302116 -0.842418
5 0.825383 2.355407
6 2.191456 -0.726117
7 2.399555 -1.477001
8 0.758923 -2.596852
9 2.049623 2.432577
10 0.091389 -0.898563
11 1.019152 -1.651873
12 1.626477 1.828423
13 -0.926157 2.435375
14 0.607470 1.347672
15 -3.046522 1.491218
16 -0.048982 1.241319
17 -0.054379 -0.364940
18 -1.475207 -1.494825
19 -1.513534 -0.459569
20 0.217299 -1.418365
EOF