NAME: distribution-lognormal_generation_type-euclidean_city_size-20_range-2.2_mutation_type-random_sampling_generation-66_iteration-1299247.0
TYPE: TSP
DIMENSION: 20
EDGE_WEIGHT_TYPE: EUC_2D
COMMENT: Generation 66, Iteration 1299247.0
NODE_COORD_SECTION
1 2.425051 -1.338585
2 2.370586 -0.970705
3 2.843025 -0.305308
4 2.476651 -1.093391
5 2.967663 0.116624
6 2.970967 -1.182467
7 0.676931 -1.123405
8 3.091958 -0.589318
9 1.976029 -0.649899
10 2.001404 -3.891525
11 1.983982 -0.678873
12 2.881896 -2.584969
13 -47.819429 -0.020300
14 3.184755 -1.470944
15 2.926705 -1.006512
16 2.734130 11.095697
17 2.026669 9.152994
18 2.988056 -0.640110
19 2.774753 -1.847526
20 2.518218 -0.971477
EOF