NAME: distribution-lognormal_generation_type-euclidean_city_size-20_range-0.6_mutation_type-random_sampling_generation-22_iteration-75.0
TYPE: TSP
DIMENSION: 20
EDGE_WEIGHT_TYPE: EUC_2D
COMMENT: Generation 22, Iteration 75.0
NODE_COORD_SECTION
1 -0.728783 -0.702955
2 0.106977 0.113490
3 1.159663 -0.651988
4 0.218694 -2.095856
5 0.483958 3.882768
6 -2.955576 0.775721
7 -0.173370 0.636271
8 -1.324909 -0.909458
9 0.887488 -0.536505
10 -3.126214 -0.346180
11 0.929063 1.487311
12 -0.687624 -1.053162
13 -0.592877 0.196466
14 3.245361 2.033187
15 0.748650 -1.140169
16 4.591207 2.775421
17 2.286619 -0.595718
18 -3.205594 1.683813
19 -3.555150 0.937033
20 1.692416 -6.489491
EOF