NAME: distribution-lognormal_generation_type-euclidean_city_size-20_range-1.8_mutation_type-random_sampling_generation-83_iteration-122062.0
TYPE: TSP
DIMENSION: 20
EDGE_WEIGHT_TYPE: EUC_2D
COMMENT: Generation 83, Iteration 122062.0
NODE_COORD_SECTION
1 2.893139 1.476375
2 2.928902 0.500404
3 1.462386 1.580267
4 1.628516 3.631689
5 1.664281 -0.202543
6 2.664885 0.778855
7 2.808071 -0.027817
8 1.759020 0.984233
9 -45.945868 -0.288070
10 3.294121 0.742834
11 2.669674 -0.301165
12 2.690018 0.819548
13 2.777442 1.068241
14 2.553584 0.443158
15 2.734774 0.239795
16 0.175778 2.121029
17 2.604955 2.046191
18 2.878086 -17.976128
19 2.985599 1.363103
20 2.772636 0.999999
EOF