NAME: distribution-uniform_generation_type-euclidean_city_size-30_range-60.0_mutation_type-random_sampling_generation-89_iteration-130332.0
TYPE: TSP
DIMENSION: 30
EDGE_WEIGHT_TYPE: EUC_2D
COMMENT: Generation 89, Iteration 130332.0
NODE_COORD_SECTION
1 -4.997289 0.539011
2 2.088187 8.262707
3 -1.668431 1.558691
4 2.416475 1.186772
5 -3.292480 9.714197
6 1.768283 -3.066169
7 -6.460905 4.358324
8 -10.822495 0.150234
9 8.299050 -4.797767
10 1.385358 -1.441360
11 -1.488576 -10.331368
12 -7.764728 -5.944557
13 -1.234163 3.762476
14 4.496042 -3.099778
15 1.455547 1.143142
16 5.558618 1.635671
17 10.325238 7.491055
18 -3.840169 2.492798
19 1.877887 -1.362886
20 -1.414706 -10.197697
21 -10.481214 -2.250567
22 -0.514902 2.631422
23 -1.760110 -3.492095
24 11.755450 2.476310
25 -4.272814 8.900090
26 -4.882368 1.107408
27 3.134570 0.834162
28 -1.643787 -8.724323
29 1.573731 3.781999
30 10.404701 -7.317904
EOF