NAME: distribution-uniform_generation_type-euclidean_city_size-30_range-80.0_mutation_type-random_sampling_generation-3_iteration-164954.0
TYPE: TSP
DIMENSION: 30
EDGE_WEIGHT_TYPE: EUC_2D
COMMENT: Generation 3, Iteration 164954.0
NODE_COORD_SECTION
1 -6.267340 3.280514
2 5.957369 -1.846166
3 6.796065 -2.687421
4 5.322581 -2.020532
5 -8.747338 -1.667202
6 3.758682 1.105117
7 5.967066 -0.952920
8 -0.559261 -4.890828
9 -8.646844 -7.114137
10 14.059260 -3.081020
11 -3.523898 8.169913
12 -6.715200 -8.360144
13 1.673205 -12.902271
14 2.822189 -5.339968
15 -12.447970 -4.329924
16 -7.501279 -7.036533
17 5.734297 6.623865
18 -14.690329 2.902071
19 0.884854 -4.958707
20 5.805710 7.876676
21 3.540251 -10.187270
22 -0.366633 -1.311501
23 -3.180892 9.684984
24 -0.270341 7.818403
25 14.348347 3.075097
26 -7.256023 5.511379
27 -5.885138 14.328000
28 5.738688 -1.628151
29 -1.151451 -0.478066
30 4.801376 10.416740
EOF