NAME: distribution-lognormal_generation_type-euclidean_city_size-20_range-0.8_mutation_type-random_sampling_generation-10_iteration-99.0
TYPE: TSP
DIMENSION: 20
EDGE_WEIGHT_TYPE: EUC_2D
COMMENT: Generation 10, Iteration 99.0
NODE_COORD_SECTION
1 -0.103130 1.152975
2 0.255894 -0.263740
3 -0.921253 -1.238237
4 -7.144864 3.860136
5 1.442152 2.951178
6 -4.835189 -8.808439
7 0.040427 1.488960
8 -0.259894 0.572450
9 -2.062447 0.877801
10 0.259738 -3.335269
11 4.913176 0.503307
12 0.601335 1.187102
13 -0.922326 -0.237302
14 0.363016 -0.382039
15 5.188245 -1.223972
16 -2.755236 4.064089
17 2.080761 -1.229084
18 1.541020 -1.056292
19 1.725464 0.307835
20 0.593110 0.808541
EOF