NAME: distribution-uniform_generation_type-euclidean_city_size-30_range-70.0_mutation_type-random_sampling_generation-3_iteration-122397.0
TYPE: TSP
DIMENSION: 30
EDGE_WEIGHT_TYPE: EUC_2D
COMMENT: Generation 3, Iteration 122397.0
NODE_COORD_SECTION
1 6.325626 -0.645788
2 -9.253267 -3.168502
3 -12.375440 -1.494346
4 -6.185274 4.738780
5 3.965114 -10.740999
6 -9.500902 0.767443
7 2.448461 -9.536638
8 -6.700576 -3.412355
9 14.441290 2.950679
10 11.989030 12.276196
11 6.002731 -4.706882
12 -3.591851 0.333422
13 2.867259 -3.194557
14 7.987760 4.459731
15 -2.274633 -3.398532
16 3.778262 -4.819459
17 -4.213383 6.328655
18 -0.056313 -1.252190
19 -2.945647 -4.498167
20 6.542154 1.504001
21 -0.743001 5.589288
22 0.183309 2.517395
23 3.896856 -13.097665
24 -1.223041 13.062913
25 1.874603 -2.615339
26 -5.809632 3.807353
27 -2.297724 6.879715
28 -5.603133 2.573328
29 -0.972179 2.968367
30 1.443538 -4.175847
EOF