NAME: distribution-uniform_generation_type-euclidean_city_size-20_range-35.0_mutation_type-random_sampling_generation-19_iteration-58.0
TYPE: TSP
DIMENSION: 20
EDGE_WEIGHT_TYPE: EUC_2D
COMMENT: Generation 19, Iteration 58.0
NODE_COORD_SECTION
1 4.997451 0.000100
2 3.956765 -2.699469
3 -0.015572 -5.962856
4 -6.604822 -3.122731
5 1.535444 3.122899
6 0.278079 -4.390619
7 -2.360610 -0.963095
8 -1.113900 -2.773824
9 3.047927 4.134944
10 -0.500886 1.334575
11 -5.949180 -1.381631
12 -0.251534 2.383030
13 -2.467536 4.415873
14 0.786452 0.649794
15 -0.259073 4.249012
16 3.454192 -2.315670
17 8.057946 0.429785
18 -0.283599 -4.434515
19 -3.286047 6.178830
20 -3.021497 1.145570
EOF