NAME: distribution-uniform_generation_type-euclidean_city_size-30_range-65.0_mutation_type-random_sampling_generation-98_iteration-187175.0
TYPE: TSP
DIMENSION: 30
EDGE_WEIGHT_TYPE: EUC_2D
COMMENT: Generation 98, Iteration 187175.0
NODE_COORD_SECTION
1 -4.227843 2.849348
2 5.956394 0.271440
3 -2.840270 -1.543996
4 6.969774 1.913759
5 -6.931660 -8.157678
6 0.313135 2.072037
7 -3.308090 -1.549934
8 -3.774161 -0.525565
9 -0.435186 3.881621
10 -2.444744 4.261486
11 2.900576 -6.033237
12 5.226564 0.191743
13 1.096778 -10.720207
14 -2.146294 3.856972
15 3.003700 -0.970537
16 1.579752 -10.564222
17 -8.325070 3.470197
18 -0.341489 -6.781166
19 -5.161737 -1.388754
20 2.256718 1.613937
21 9.448812 1.678168
22 11.712325 6.554408
23 3.577403 6.889061
24 3.902340 9.442595
25 -0.628604 0.207522
26 -4.828609 -4.609941
27 8.321466 -4.558098
28 -1.725513 -5.651083
29 -13.048336 7.322676
30 -6.098132 6.577447
EOF