NAME: distribution-uniform_generation_type-euclidean_city_size-20_range-25.0_mutation_type-random_sampling_generation-25_iteration-101.0
TYPE: TSP
DIMENSION: 20
EDGE_WEIGHT_TYPE: EUC_2D
COMMENT: Generation 25, Iteration 101.0
NODE_COORD_SECTION
1 -4.320474 1.080765
2 -1.857307 -2.047986
3 2.562866 -3.190953
4 0.051726 0.639567
5 0.108521 0.059728
6 1.087157 -6.481148
7 -3.086302 -0.816434
8 -0.028428 2.129611
9 1.635444 3.576697
10 0.314121 -0.113453
11 -0.525526 -1.179899
12 1.462483 0.123750
13 -4.175273 -0.404366
14 1.143241 0.402719
15 2.269478 2.630104
16 -2.804214 -1.731504
17 1.949439 -0.500165
18 2.866970 -1.028039
19 -3.477901 4.230840
20 4.823979 2.620168
EOF