NAME: distribution-uniform_generation_type-euclidean_city_size-30_range-75.0_mutation_type-random_sampling_generation-32_iteration-118965.0
TYPE: TSP
DIMENSION: 30
EDGE_WEIGHT_TYPE: EUC_2D
COMMENT: Generation 32, Iteration 118965.0
NODE_COORD_SECTION
1 0.004372 -15.563290
2 -1.820299 -4.525172
3 -0.326783 8.007939
4 -1.230897 -0.016965
5 -5.078363 7.391921
6 4.110877 -3.860706
7 -7.339849 0.799203
8 8.840666 1.449475
9 8.290111 -4.922985
10 4.207414 -11.609915
11 8.918948 8.487885
12 -1.485085 7.068121
13 -3.197935 1.271810
14 -2.108232 2.380468
15 -13.774588 2.387689
16 5.656342 -4.228806
17 -6.982504 0.289973
18 -4.176899 -7.577624
19 -1.945637 -2.140370
20 2.096571 7.500353
21 6.385597 4.472144
22 -10.800463 7.426457
23 -1.481031 -2.750416
24 8.721982 3.931456
25 -6.049912 -3.160109
26 8.265898 6.759780
27 -1.757943 -5.802929
28 -3.014299 -5.669914
29 9.920261 -0.078125
30 -2.848318 2.282652
EOF