NAME: distribution-uniform_generation_type-euclidean_city_size-30_range-70.0_mutation_type-random_sampling_generation-11_iteration-316161.0
TYPE: TSP
DIMENSION: 30
EDGE_WEIGHT_TYPE: EUC_2D
COMMENT: Generation 11, Iteration 316161.0
NODE_COORD_SECTION
1 9.649532 -6.647123
2 -0.786791 -6.032558
3 -1.662497 4.723565
4 -1.595271 -6.599805
5 2.598805 -6.896805
6 6.735271 0.259319
7 -4.889223 6.498900
8 -9.426294 -10.616536
9 -7.239484 1.426381
10 6.456306 -2.142938
11 3.806964 7.187007
12 -8.692983 1.419061
13 -6.074345 0.498415
14 6.707114 -0.349571
15 1.635461 7.519723
16 -0.810237 2.158057
17 16.619774 5.921526
18 -9.826873 1.806487
19 0.734055 -5.677947
20 -10.787447 2.736092
21 -4.376722 -6.440864
22 0.594732 -6.564441
23 2.062113 3.676713
24 0.823251 5.721304
25 5.250977 -5.800102
26 -2.408367 12.175470
27 -3.245811 4.495658
28 1.111465 3.657154
29 5.203454 3.019222
30 1.833071 -11.131364
EOF