NAME: distribution-uniform_generation_type-euclidean_city_size-30_range-95.0_mutation_type-random_sampling_generation-73_iteration-174651.0
TYPE: TSP
DIMENSION: 30
EDGE_WEIGHT_TYPE: EUC_2D
COMMENT: Generation 73, Iteration 174651.0
NODE_COORD_SECTION
1 17.024225 -5.931380
2 2.419832 -1.006236
3 -5.676678 -12.862359
4 -2.186276 -0.053419
5 -0.843985 -1.285286
6 11.458860 8.921993
7 -3.428742 1.774224
8 3.490251 9.125105
9 1.546207 2.234637
10 -4.342576 0.996923
11 2.309550 -7.448615
12 -0.891005 9.473147
13 -1.024085 6.812115
14 -4.052864 -0.349402
15 -6.164503 4.713228
16 5.841285 -16.443882
17 7.567568 -1.826696
18 7.863428 0.889992
19 -0.016178 -6.608434
20 -16.320682 -0.405558
21 -4.667020 -5.674101
22 -7.795273 -10.328646
23 -7.409523 3.580147
24 -14.883090 7.560644
25 -8.378015 15.793019
26 0.174203 -3.277407
27 12.226431 11.784631
28 -5.650834 -11.486908
29 10.921313 -1.167721
30 10.888178 2.496243
EOF