NAME: distribution-uniform_generation_type-euclidean_city_size-30_range-95.0_mutation_type-random_sampling_generation-13_iteration-125005.0
TYPE: TSP
DIMENSION: 30
EDGE_WEIGHT_TYPE: EUC_2D
COMMENT: Generation 13, Iteration 125005.0
NODE_COORD_SECTION
1 -0.173700 1.147306
2 -7.978811 4.719427
3 5.285954 1.694999
4 9.998988 2.217307
5 0.387833 6.563012
6 -13.589190 3.257408
7 -0.884612 -13.409951
8 -1.459372 -15.856686
9 -9.061067 0.566550
10 1.286928 -8.959156
11 -8.264373 2.251740
12 -2.343237 10.233995
13 -5.558670 -2.894816
14 8.342337 5.117529
15 -1.249122 5.227902
16 -3.029608 9.303107
17 8.049789 4.890785
18 -15.668897 -8.499278
19 11.486245 -12.226286
20 1.285601 -0.897705
21 4.875309 9.320642
22 13.426320 -4.927537
23 -2.826600 -10.021536
24 13.702879 -5.659561
25 -3.448222 -0.759626
26 7.160545 3.377111
27 -10.358459 -4.371259
28 4.624237 13.077957
29 3.579575 -0.270603
30 -7.598600 5.787220
EOF