NAME: distribution-uniform_generation_type-euclidean_city_size-30_range-100.0_mutation_type-random_sampling_generation-27_iteration-238684.0
TYPE: TSP
DIMENSION: 30
EDGE_WEIGHT_TYPE: EUC_2D
COMMENT: Generation 27, Iteration 238684.0
NODE_COORD_SECTION
1 -1.405666 15.943704
2 5.626564 3.138533
3 -9.800793 1.841536
4 -4.298384 2.337291
5 -2.264744 10.963304
6 11.071175 6.778133
7 0.279042 -4.785068
8 4.552233 5.769165
9 -18.835377 -1.510066
10 5.375739 2.257545
11 12.274387 -3.684847
12 -10.278908 9.493885
13 -1.469237 -12.852320
14 1.045844 -2.120004
15 -4.456524 5.621191
16 1.668341 -0.371023
17 17.812249 -0.265255
18 -2.008774 6.280104
19 -7.291784 9.263596
20 -10.614089 -12.682288
21 -1.623369 -17.157780
22 5.721583 -14.517143
23 -6.699251 -3.795718
24 15.141419 4.583265
25 -16.746659 1.961759
26 -1.630393 -11.414536
27 -3.331110 3.898685
28 5.511091 6.084482
29 0.384200 -9.649109
30 16.291196 -1.411022
EOF