NAME: distribution-lognormal_generation_type-euclidean_city_size-20_range-0.4_mutation_type-random_sampling_generation-59_iteration-83.0
TYPE: TSP
DIMENSION: 20
EDGE_WEIGHT_TYPE: EUC_2D
COMMENT: Generation 59, Iteration 83.0
NODE_COORD_SECTION
1 -0.239943 -1.858380
2 -0.025593 0.003659
3 0.014989 -0.155581
4 -2.013958 0.725026
5 -0.905217 -0.495416
6 -1.827054 2.721768
7 -0.793397 2.031546
8 -0.117854 2.229192
9 0.987017 0.329922
10 4.928440 2.142592
11 -0.455830 0.489665
12 0.049655 -1.834415
13 -0.109729 -0.491584
14 -0.741857 -0.687613
15 -1.114634 0.172876
16 1.945465 -1.029827
17 -0.675799 0.487924
18 0.037014 -1.513523
19 0.975241 -0.970776
20 0.083044 -2.297056
EOF