NAME: distribution-uniform_generation_type-euclidean_city_size-20_range-15.0_mutation_type-random_sampling_generation-46_iteration-2755286.0
TYPE: TSP
DIMENSION: 20
EDGE_WEIGHT_TYPE: EUC_2D
COMMENT: Generation 46, Iteration 2755286.0
NODE_COORD_SECTION
1 -0.481730 -1.377413
2 2.064426 -3.210208
3 1.959309 -0.458991
4 1.000504 0.720201
5 0.232076 0.710459
6 1.588365 3.572150
7 -1.224716 -1.265231
8 0.186931 0.043996
9 -1.185544 0.818721
10 -0.493894 -0.221878
11 0.983579 -1.388184
12 0.732090 2.308618
13 2.595755 0.051471
14 -1.067132 1.241880
15 0.599993 -1.041680
16 -0.404198 0.039195
17 -3.027421 -2.026804
18 -3.269661 1.387182
19 0.765413 -0.144709
20 -1.554145 0.241225
EOF