NAME: distribution-lognormal_generation_type-euclidean_city_size-20_range-0.6_mutation_type-random_sampling_generation-29_iteration-103.0
TYPE: TSP
DIMENSION: 20
EDGE_WEIGHT_TYPE: EUC_2D
COMMENT: Generation 29, Iteration 103.0
NODE_COORD_SECTION
1 -0.711935 1.488289
2 -5.904506 -3.350442
3 0.264229 -0.219052
4 1.019016 0.086460
5 0.495865 2.217051
6 0.503806 -3.904434
7 -2.719684 0.057276
8 3.496587 -2.810213
9 2.361073 0.729955
10 -4.022751 2.001104
11 0.178310 -2.039536
12 1.356559 -0.655955
13 -0.004667 2.487397
14 -0.040792 -1.731553
15 0.884996 1.514277
16 0.327355 -0.163251
17 -0.184673 2.528668
18 -0.760032 0.845240
19 2.208301 -1.791133
20 1.252944 2.709853
EOF