NAME: distribution-lognormal_generation_type-euclidean_city_size-20_range-2.6_mutation_type-random_sampling_generation-0_iteration-865719.0
TYPE: TSP
DIMENSION: 20
EDGE_WEIGHT_TYPE: EUC_2D
COMMENT: Generation 0, Iteration 865719.0
NODE_COORD_SECTION
1 -1.217303 1.485328
2 -4.190853 -23.846079
3 -1.880810 3.989877
4 -1.068829 1.346362
5 -1.114163 1.474886
6 30.371446 -2.175131
7 -1.013779 1.324538
8 -1.758448 0.821387
9 -1.063343 1.409038
10 -1.221517 1.513442
11 -2.232000 2.189179
12 -1.217303 1.485328
13 -1.074824 1.422483
14 -1.580721 1.389736
15 -2.896580 -2.312147
16 -1.140526 1.707559
17 -2.064859 1.667963
18 -1.086911 0.789887
19 -1.042145 2.435083
20 -1.506534 1.881279
EOF