NAME: distribution-lognormal_generation_type-euclidean_city_size-20_range-0.4_mutation_type-random_sampling_generation-83_iteration-77.0
TYPE: TSP
DIMENSION: 20
EDGE_WEIGHT_TYPE: EUC_2D
COMMENT: Generation 83, Iteration 77.0
NODE_COORD_SECTION
1 -0.345089 3.071130
2 -2.097512 -0.633724
3 -0.060703 -0.442705
4 2.065058 0.231397
5 1.597282 0.491868
6 0.027680 -0.588535
7 0.404388 0.059243
8 -0.684059 -0.650014
9 -0.123590 -2.597940
10 -1.245455 -1.119423
11 -0.324466 0.133675
12 -0.324195 -1.086042
13 0.409518 -0.086452
14 3.365150 -1.312731
15 -0.213872 0.312837
16 0.828962 2.295394
17 1.447462 1.358931
18 -0.852258 0.393553
19 -3.493824 0.959142
20 -0.380477 -0.789602
EOF