NAME: distribution-lognormal_generation_type-euclidean_city_size-20_range-0.4_mutation_type-random_sampling_generation-43_iteration-15642435.0
TYPE: TSP
DIMENSION: 20
EDGE_WEIGHT_TYPE: EUC_2D
COMMENT: Generation 43, Iteration 15642435.0
NODE_COORD_SECTION
1 -0.937106 -2.411876
2 0.735956 0.120920
3 1.158915 -2.552765
4 2.854576 1.807856
5 1.290198 0.151139
6 2.047177 -1.409654
7 -0.668565 0.057969
8 -0.051971 0.457935
9 0.145253 0.347811
10 1.840963 2.300878
11 0.167076 -1.538341
12 -0.747202 -0.596145
13 -1.430798 -0.892126
14 0.124444 0.573376
15 1.029278 -0.212159
16 -1.764711 2.450035
17 -0.914549 -0.577203
18 -0.051971 0.457935
19 -2.544925 0.916247
20 -2.282037 0.548168
EOF