NAME: distribution-uniform_generation_type-euclidean_city_size-20_range-35.0_mutation_type-random_sampling_generation-5_iteration-52.0
TYPE: TSP
DIMENSION: 20
EDGE_WEIGHT_TYPE: EUC_2D
COMMENT: Generation 5, Iteration 52.0
NODE_COORD_SECTION
1 -1.982565 -3.767794
2 1.320300 -2.788304
3 1.094687 0.849974
4 2.396113 -0.308128
5 -0.278846 4.276273
6 -3.874393 1.276934
7 0.506562 2.935436
8 2.948819 -2.015035
9 -1.305394 -2.231987
10 -4.789436 5.750392
11 -4.984941 -2.945202
12 4.187280 -5.917425
13 2.967974 0.443515
14 1.462413 -5.267019
15 -2.503366 -0.793734
16 5.138356 4.071253
17 -2.128048 0.273497
18 6.879956 4.523797
19 -4.110539 0.783508
20 -2.944930 0.850049
EOF