NAME: distribution-lognormal_generation_type-euclidean_city_size-20_range-2.2_mutation_type-random_sampling_generation-67_iteration-237275.0
TYPE: TSP
DIMENSION: 20
EDGE_WEIGHT_TYPE: EUC_2D
COMMENT: Generation 67, Iteration 237275.0
NODE_COORD_SECTION
1 -2.744715 1.424331
2 -2.818249 1.650917
3 -4.670375 7.437871
4 49.980052 -1.394927
5 -2.665494 1.289762
6 -2.718622 1.393305
7 -2.744715 1.424331
8 -5.175740 -31.653033
9 -2.283982 1.698730
10 -1.753272 1.367789
11 2.361360 1.749289
12 -2.699329 1.361749
13 -2.766543 1.450829
14 -2.801715 1.631965
15 -2.602905 1.209722
16 -3.083502 1.959948
17 -2.361926 1.944726
18 -3.130629 1.487355
19 -2.659848 1.282670
20 -2.659848 1.282670
EOF