NAME: distribution-lognormal_generation_type-euclidean_city_size-20_range-0.4_mutation_type-random_sampling_generation-5_iteration-518924.0
TYPE: TSP
DIMENSION: 20
EDGE_WEIGHT_TYPE: EUC_2D
COMMENT: Generation 5, Iteration 518924.0
NODE_COORD_SECTION
1 -0.536112 1.371429
2 -0.644250 -2.500073
3 0.404905 -1.257098
4 2.265530 0.078139
5 1.959060 -0.050633
6 -0.562343 -0.547698
7 -0.215157 1.160598
8 0.239396 1.568837
9 0.111664 -0.863341
10 -2.028253 -1.171905
11 -0.879391 1.742764
12 0.962591 1.626756
13 -0.652908 -0.253291
14 1.699668 0.105207
15 0.128304 0.280674
16 0.829620 0.635228
17 1.946374 -1.726493
18 -0.333340 -1.274182
19 -1.343713 1.215074
20 -3.351644 -0.139994
EOF