NAME: distribution-uniform_generation_type-euclidean_city_size-30_range-30.0_mutation_type-random_sampling_generation-73_iteration-101562.0
TYPE: TSP
DIMENSION: 30
EDGE_WEIGHT_TYPE: EUC_2D
COMMENT: Generation 73, Iteration 101562.0
NODE_COORD_SECTION
1 -1.814997 1.915237
2 -0.727775 -1.624166
3 -1.327339 -0.520875
4 1.632938 4.320528
5 4.115674 5.861451
6 -0.415216 0.321067
7 -0.850683 1.221174
8 3.149320 3.318062
9 1.730640 -6.215114
10 1.876434 2.499325
11 -0.664161 2.021080
12 1.301351 -2.986388
13 -3.634559 -2.729466
14 2.882355 -1.677508
15 -1.185145 1.522778
16 4.452411 -1.307093
17 -8.309435 0.730875
18 -1.089616 1.533823
19 -4.711655 5.706526
20 -1.706623 -0.309221
21 -4.485640 -5.078473
22 1.903629 -2.014468
23 6.139024 -0.999108
24 1.806658 -3.482910
25 -3.379925 0.443860
26 -0.227377 1.643979
27 1.192865 -1.252613
28 0.023583 -2.544393
29 2.723475 1.877866
30 -0.400212 -2.195834
EOF