NAME: distribution-uniform_generation_type-euclidean_city_size-30_range-75.0_mutation_type-random_sampling_generation-17_iteration-182960.0
TYPE: TSP
DIMENSION: 30
EDGE_WEIGHT_TYPE: EUC_2D
COMMENT: Generation 17, Iteration 182960.0
NODE_COORD_SECTION
1 -7.189662 6.493390
2 -6.908400 1.263933
3 4.453337 8.677717
4 -7.709022 -7.085355
5 -0.124614 0.355097
6 -2.250925 -1.958781
7 2.893995 3.864141
8 -14.507653 -2.005153
9 -8.348936 4.226219
10 9.434181 -9.645513
11 -1.770867 10.981327
12 -4.149100 1.354332
13 -2.280316 1.802734
14 -2.205863 -3.374111
15 6.535237 -0.880454
16 -3.007328 -0.036749
17 -1.828390 1.851957
18 5.621370 -3.933702
19 4.470786 8.182278
20 2.602324 6.268340
21 11.330131 -1.981841
22 1.814842 -6.653715
23 -1.187262 5.994200
24 -1.090234 2.283972
25 4.048022 -1.717695
26 -5.785706 -5.467250
27 8.057431 3.875581
28 10.254026 1.558358
29 -2.238719 -12.691303
30 1.067315 -11.601955
EOF