NAME: distribution-lognormal_generation_type-euclidean_city_size-20_range-0.8_mutation_type-random_sampling_generation-98_iteration-87.0
TYPE: TSP
DIMENSION: 20
EDGE_WEIGHT_TYPE: EUC_2D
COMMENT: Generation 98, Iteration 87.0
NODE_COORD_SECTION
1 0.693531 0.893756
2 0.454269 -7.418583
3 -1.699037 1.178972
4 0.374540 -0.327673
5 0.561728 0.717105
6 1.389614 -1.363518
7 -3.166641 1.957581
8 -1.148107 -4.343854
9 -0.253231 -0.745727
10 -0.337575 0.672808
11 -1.126830 3.703890
12 1.203176 3.413675
13 -0.378119 1.887299
14 10.381472 0.762062
15 -3.061264 0.142157
16 -0.897040 0.112053
17 -1.773707 0.206901
18 0.901129 -0.828481
19 -1.813053 -1.290813
20 -0.304856 0.670391
EOF