NAME: distribution-uniform_generation_type-euclidean_city_size-30_range-85.0_mutation_type-random_sampling_generation-38_iteration-172298.0
TYPE: TSP
DIMENSION: 30
EDGE_WEIGHT_TYPE: EUC_2D
COMMENT: Generation 38, Iteration 172298.0
NODE_COORD_SECTION
1 -7.394600 14.314068
2 14.369273 1.908319
3 -10.096610 -6.228076
4 -2.508535 3.464581
5 -9.235339 1.084886
6 2.520035 -4.578453
7 7.152977 1.313845
8 -4.176677 6.124501
9 -10.516155 3.070936
10 3.101820 -15.114565
11 -1.193964 0.208989
12 -11.711738 -4.121794
13 2.776419 4.433208
14 -10.050464 -6.291404
15 9.727244 1.010027
16 -6.317893 -12.766261
17 7.545592 -7.266834
18 7.782186 -3.562105
19 -0.125003 12.817135
20 8.362137 3.399441
21 4.833976 6.395953
22 4.712833 5.788747
23 -0.308465 4.502300
24 0.062166 7.518199
25 -0.136492 -8.144421
26 1.085745 -3.963686
27 0.119888 -0.554471
28 8.284731 -9.033011
29 -9.490780 -0.012233
30 0.825693 4.282180
EOF