NAME: distribution-uniform_generation_type-euclidean_city_size-30_range-90.0_mutation_type-random_sampling_generation-42_iteration-115987.0
TYPE: TSP
DIMENSION: 30
EDGE_WEIGHT_TYPE: EUC_2D
COMMENT: Generation 42, Iteration 115987.0
NODE_COORD_SECTION
1 2.192545 -3.619378
2 -6.075423 -0.309871
3 11.594687 -4.923436
4 -1.068693 3.249959
5 1.457629 10.406210
6 15.243327 1.305482
7 -7.662909 0.193046
8 -8.827304 9.867516
9 4.510699 -7.035166
10 4.358980 4.690018
11 15.720850 5.746903
12 5.838640 4.097433
13 9.429577 -9.108889
14 -8.708302 -7.093753
15 1.737978 -1.913727
16 -6.540144 -1.599587
17 -7.462651 -16.028170
18 -0.251284 11.507736
19 -8.170496 13.762428
20 1.064132 -4.571672
21 2.342841 15.203912
22 -4.247736 -2.596249
23 12.438832 -4.687322
24 -16.536216 0.966608
25 0.737079 -0.343975
26 -3.867453 -5.639420
27 -2.422155 11.137802
28 -11.596262 -7.983464
29 0.677333 -10.330827
30 4.091901 -4.350144
EOF