NAME: distribution-uniform_generation_type-euclidean_city_size-20_range-25.0_mutation_type-random_sampling_generation-83_iteration-66.0
TYPE: TSP
DIMENSION: 20
EDGE_WEIGHT_TYPE: EUC_2D
COMMENT: Generation 83, Iteration 66.0
NODE_COORD_SECTION
1 -2.844449 3.631476
2 1.631519 -3.998375
3 -0.484544 0.265974
4 2.766786 2.853680
5 -4.262650 -1.614361
6 2.145286 -2.236105
7 -4.446967 1.395599
8 -3.537393 -0.132051
9 2.039834 1.622425
10 -0.750645 0.339420
11 -1.897054 -4.575640
12 4.968662 -0.184024
13 0.937014 -0.307542
14 1.105625 -0.927631
15 2.619509 2.307129
16 2.620340 0.488524
17 -2.792952 3.122379
18 2.489315 -2.383272
19 0.283329 3.975453
20 -2.590568 -3.643059
EOF