NAME: distribution-uniform_generation_type-euclidean_city_size-30_range-100.0_mutation_type-random_sampling_generation-54_iteration-122459.0
TYPE: TSP
DIMENSION: 30
EDGE_WEIGHT_TYPE: EUC_2D
COMMENT: Generation 54, Iteration 122459.0
NODE_COORD_SECTION
1 -15.266252 0.265342
2 12.326042 3.810520
3 7.899255 13.002711
4 -5.744026 -9.655081
5 6.826126 -2.593013
6 -0.274313 -5.171644
7 -4.502679 -1.540962
8 13.623425 -6.083712
9 8.512399 -10.866867
10 2.219787 -3.804607
11 14.570729 10.040793
12 0.804223 4.473782
13 5.198757 1.202829
14 -8.533803 8.847068
15 11.133877 5.596238
16 1.245409 -18.379594
17 2.561579 11.059600
18 -7.970788 3.305737
19 -10.124474 6.239451
20 -2.471116 -10.695378
21 -7.891787 -5.010334
22 -13.792046 1.369044
23 8.009260 -11.217142
24 10.367460 4.486213
25 -12.216123 2.908274
26 -10.550371 -6.397785
27 3.942766 -11.134574
28 -5.253894 1.806172
29 -7.804069 11.431886
30 3.154646 12.705032
EOF