NAME: distribution-uniform_generation_type-euclidean_city_size-20_range-55.0_mutation_type-random_sampling_generation-38_iteration-86.0
TYPE: TSP
DIMENSION: 20
EDGE_WEIGHT_TYPE: EUC_2D
COMMENT: Generation 38, Iteration 86.0
NODE_COORD_SECTION
1 2.756961 8.233435
2 -11.775969 0.100158
3 4.801397 -3.640864
4 5.684455 0.657838
5 6.732928 -3.791076
6 -3.277061 -2.221154
7 -6.132148 2.796547
8 -3.990403 -3.619358
9 2.730026 -2.987473
10 -0.010317 1.937253
11 2.050217 -5.622044
12 5.806643 -8.708620
13 2.111411 7.350220
14 1.300341 1.481051
15 -6.835210 -10.586616
16 1.070235 0.123781
17 6.433046 4.116793
18 0.543092 3.407441
19 -9.655231 3.334824
20 -0.344411 7.637863
EOF