NAME: distribution-lognormal_generation_type-euclidean_city_size-20_range-2.8_mutation_type-random_sampling_generation-6_iteration-198233.0
TYPE: TSP
DIMENSION: 20
EDGE_WEIGHT_TYPE: EUC_2D
COMMENT: Generation 6, Iteration 198233.0
NODE_COORD_SECTION
1 -0.654566 8.797157
2 0.900060 -3.087178
3 0.890141 -3.008257
4 0.858932 -2.919460
5 0.917202 -3.065439
6 1.583562 -3.148846
7 1.570746 -3.134721
8 1.517281 -2.930267
9 0.858932 -2.919460
10 1.942482 -1.763863
11 -0.077772 -2.393917
12 1.536340 -2.683330
13 1.453011 -2.784761
14 15.841752 24.385446
15 -9.548168 2.443020
16 1.495539 -2.566529
17 2.084976 -3.863934
18 1.955995 -3.736097
19 -26.016585 11.388694
20 0.890141 -3.008257
EOF