NAME: distribution-lognormal_generation_type-euclidean_city_size-20_range-0.6_mutation_type-random_sampling_generation-43_iteration-84.0
TYPE: TSP
DIMENSION: 20
EDGE_WEIGHT_TYPE: EUC_2D
COMMENT: Generation 43, Iteration 84.0
NODE_COORD_SECTION
1 -0.756293 3.653503
2 4.641767 -0.414347
3 -1.705171 1.998669
4 1.381791 0.804315
5 2.383618 1.227295
6 -2.409250 1.452274
7 -0.039323 1.474365
8 2.361875 0.522347
9 -3.566022 -3.723076
10 -2.823411 0.577407
11 -0.986274 -0.582072
12 -2.372314 -0.690827
13 1.362929 0.504834
14 1.542402 -3.464641
15 -1.065546 0.987680
16 -0.319527 1.122217
17 1.068273 -2.609847
18 -1.955438 -0.971126
19 0.965007 -2.835125
20 2.290907 0.966156
EOF