NAME: distribution-uniform_generation_type-euclidean_city_size-20_range-30.0_mutation_type-random_sampling_generation-25_iteration-65.0
TYPE: TSP
DIMENSION: 20
EDGE_WEIGHT_TYPE: EUC_2D
COMMENT: Generation 25, Iteration 65.0
NODE_COORD_SECTION
1 -0.266726 6.471896
2 -4.129016 -2.742649
3 3.189641 -5.987888
4 -0.901798 -1.230732
5 -7.101883 -4.535239
6 5.020023 -1.679016
7 -2.331386 5.759470
8 -1.106583 2.841979
9 -2.327840 1.175608
10 4.182320 1.947872
11 1.559033 -2.848409
12 5.567000 -1.656076
13 -0.645677 -4.210741
14 -3.878107 3.066467
15 0.491082 -3.465184
16 1.235397 1.288688
17 2.011413 2.431965
18 -5.816751 -0.865598
19 1.276656 2.984122
20 3.973202 1.253466
EOF