NAME: distribution-uniform_generation_type-euclidean_city_size-30_range-65.0_mutation_type-random_sampling_generation-26_iteration-110761.0
TYPE: TSP
DIMENSION: 30
EDGE_WEIGHT_TYPE: EUC_2D
COMMENT: Generation 26, Iteration 110761.0
NODE_COORD_SECTION
1 5.097216 -2.398702
2 2.060954 9.266643
3 -7.409264 -0.576877
4 0.111066 -7.342461
5 -0.946261 10.710039
6 2.689960 -2.350804
7 1.517008 8.203783
8 7.803564 -8.408976
9 4.487484 -6.990036
10 7.625001 4.240536
11 -7.167457 2.337323
12 -9.274834 -2.562723
13 7.950078 4.828565
14 -7.577917 2.471583
15 9.709397 2.343961
16 0.203740 -4.484970
17 -7.666538 -1.155574
18 -3.350083 -8.900072
19 1.748971 2.612870
20 3.758115 1.486406
21 1.283100 3.531386
22 2.093946 3.883760
23 -3.239206 1.113429
24 -6.586629 -4.697385
25 -9.282829 0.097055
26 -0.400049 3.907661
27 -3.935698 5.524884
28 -0.176899 -5.051097
29 2.255252 -4.892491
30 6.618807 -6.747715
EOF