NAME: distribution-uniform_generation_type-euclidean_city_size-30_range-60.0_mutation_type-random_sampling_generation-74_iteration-126574.0
TYPE: TSP
DIMENSION: 30
EDGE_WEIGHT_TYPE: EUC_2D
COMMENT: Generation 74, Iteration 126574.0
NODE_COORD_SECTION
1 2.745633 -0.242923
2 5.907715 0.161961
3 0.402775 10.785313
4 -6.675227 -3.558017
5 -6.723530 -1.859622
6 6.383871 -5.299511
7 5.961448 -3.610437
8 -2.102778 0.833065
9 -4.049389 3.427359
10 6.226448 7.169153
11 11.240458 -1.908171
12 3.977456 1.923696
13 2.339886 -2.386731
14 9.349476 -3.421072
15 -2.765956 -4.424210
16 -3.446692 8.974697
17 -8.488750 -3.320153
18 -2.006301 -6.600587
19 -7.777561 11.650586
20 -4.583796 -6.986541
21 2.555848 1.044971
22 -6.251213 -1.216851
23 8.423761 -0.395961
24 -5.047805 -0.251558
25 0.112439 -4.243415
26 2.332799 7.483989
27 -1.650121 -8.929641
28 0.029803 5.960096
29 0.534595 3.644298
30 -6.955290 -4.403782
EOF