NAME: distribution-uniform_generation_type-euclidean_city_size-30_range-60.0_mutation_type-random_sampling_generation-76_iteration-237895.0
TYPE: TSP
DIMENSION: 30
EDGE_WEIGHT_TYPE: EUC_2D
COMMENT: Generation 76, Iteration 237895.0
NODE_COORD_SECTION
1 -6.313251 1.051620
2 -3.034460 -10.029347
3 9.800471 2.582363
4 -8.050096 6.860779
5 4.183178 -0.466490
6 8.494213 6.533096
7 -7.760496 6.640838
8 -7.245522 -5.657248
9 2.117491 4.212245
10 4.536554 5.638058
11 -6.597581 1.728421
12 -6.660543 -5.789840
13 3.602476 -0.707718
14 -0.416106 -9.505368
15 -1.359844 -6.520559
16 2.664931 -0.395934
17 4.856525 -0.028219
18 9.866231 -1.923202
19 1.822588 6.059850
20 4.395518 -1.453851
21 -1.030452 -0.825646
22 1.539597 -6.974026
23 1.796320 5.006893
24 2.793962 -5.182465
25 -1.181044 6.024812
26 -3.878613 0.486790
27 0.411483 1.272548
28 2.194399 -9.705905
29 -0.375251 6.994170
30 -11.172679 4.073335
EOF