NAME: distribution-lognormal_generation_type-euclidean_city_size-20_range-2.0_mutation_type-random_sampling_generation-65_iteration-126758.0
TYPE: TSP
DIMENSION: 20
EDGE_WEIGHT_TYPE: EUC_2D
COMMENT: Generation 65, Iteration 126758.0
NODE_COORD_SECTION
1 -2.795936 2.169276
2 -2.328114 1.972726
3 -2.230150 1.226106
4 -1.868309 1.243705
5 -2.552802 1.768585
6 46.040169 0.315027
7 -2.844755 0.162912
8 -2.749368 2.069298
9 -1.848778 1.210558
10 -2.274483 2.852736
11 -2.660839 1.935195
12 -2.829929 1.155076
13 -2.299427 1.326402
14 -1.862416 1.786311
15 -1.835658 1.185977
16 -2.590016 1.816862
17 -1.918951 -28.584487
18 -2.751304 1.397530
19 -2.825042 1.135795
20 -2.973892 1.854412
EOF