NAME: distribution-uniform_generation_type-euclidean_city_size-30_range-100.0_mutation_type-random_sampling_generation-24_iteration-190334.0
TYPE: TSP
DIMENSION: 30
EDGE_WEIGHT_TYPE: EUC_2D
COMMENT: Generation 24, Iteration 190334.0
NODE_COORD_SECTION
1 7.711796 -7.732645
2 3.254658 8.456162
3 -12.382018 8.754653
4 3.321540 9.988392
5 -6.630696 -4.260334
6 -10.897676 -4.730287
7 12.290704 8.557506
8 3.630920 -7.239953
9 -3.180402 -4.008380
10 18.455923 3.202097
11 5.280556 -15.649382
12 -12.165587 -14.240047
13 3.190959 2.999580
14 1.683592 0.276565
15 -8.581218 -4.717165
16 14.567333 -14.850384
17 -5.651784 11.401704
18 -6.950744 3.466181
19 -4.876121 0.910218
20 9.400631 7.183685
21 7.951807 5.171062
22 -2.973428 8.312379
23 7.852753 3.775987
24 9.868743 -0.562739
25 -6.087144 -8.128926
26 -9.319282 -12.447143
27 -1.292442 7.037523
28 -4.532642 -2.326818
29 1.238933 -4.431307
30 -14.179667 15.831818
EOF