NAME: distribution-lognormal_generation_type-euclidean_city_size-20_range-0.4_mutation_type-random_sampling_generation-66_iteration-842494.0
TYPE: TSP
DIMENSION: 20
EDGE_WEIGHT_TYPE: EUC_2D
COMMENT: Generation 66, Iteration 842494.0
NODE_COORD_SECTION
1 -1.686559 0.610713
2 3.462550 0.216157
3 -1.189057 -1.088591
4 -0.243322 -0.614329
5 2.295009 -3.357984
6 -2.077010 -0.654909
7 1.312614 0.776062
8 -1.696356 -1.862776
9 0.193040 0.371083
10 -1.537108 1.163575
11 -0.270448 2.009850
12 -0.309190 0.887148
13 0.045705 1.638055
14 1.234855 0.382563
15 0.462786 0.750718
16 -0.244627 1.243712
17 0.385420 0.634989
18 0.743004 -0.599372
19 -1.344322 -2.385251
20 0.463016 -0.121411
EOF