NAME: distribution-uniform_generation_type-euclidean_city_size-20_range-35.0_mutation_type-random_sampling_generation-98_iteration-85.0
TYPE: TSP
DIMENSION: 20
EDGE_WEIGHT_TYPE: EUC_2D
COMMENT: Generation 98, Iteration 85.0
NODE_COORD_SECTION
1 -2.932991 -2.719341
2 -6.653913 -3.455916
3 3.225224 -1.422744
4 0.819747 2.153203
5 -3.107128 -0.459410
6 2.536120 1.906013
7 -3.079236 -2.144929
8 6.354584 -1.828540
9 -1.026915 -5.392168
10 -3.000999 6.768883
11 -2.413950 -5.655508
12 5.540267 -0.761838
13 4.685511 -0.142205
14 -0.620950 6.214993
15 2.166607 -1.218821
16 -3.015553 3.797205
17 -0.865252 4.457679
18 0.348033 0.311863
19 5.052516 -0.366535
20 -4.011723 -0.041885
EOF