NAME: distribution-lognormal_generation_type-euclidean_city_size-20_range-0.6_mutation_type-random_sampling_generation-63_iteration-63.0
TYPE: TSP
DIMENSION: 20
EDGE_WEIGHT_TYPE: EUC_2D
COMMENT: Generation 63, Iteration 63.0
NODE_COORD_SECTION
1 -3.547995 -1.102634
2 0.811504 -0.234188
3 -1.659916 0.078942
4 1.671484 -0.877135
5 0.235409 -4.482596
6 -0.256862 -0.317198
7 -0.450701 1.714491
8 -6.820538 0.770538
9 1.742011 1.395453
10 0.217108 0.283312
11 1.507996 -1.818930
12 0.068870 4.313066
13 2.216877 0.051600
14 -1.711663 0.744136
15 0.725466 0.313857
16 0.854174 -3.728456
17 0.885071 0.199307
18 -0.651728 -0.850678
19 1.839917 0.053109
20 2.323517 3.494004
EOF