NAME: distribution-uniform_generation_type-euclidean_city_size-20_range-15.0_mutation_type-random_sampling_generation-31_iteration-102.0
TYPE: TSP
DIMENSION: 20
EDGE_WEIGHT_TYPE: EUC_2D
COMMENT: Generation 31, Iteration 102.0
NODE_COORD_SECTION
1 1.113564 0.397852
2 2.601325 1.705160
3 -0.039438 0.235732
4 -0.561757 0.617679
5 -0.039438 0.235732
6 2.146593 -2.683666
7 1.712692 0.364219
8 0.642848 1.023731
9 -0.892767 -3.567842
10 -1.376223 -1.274331
11 1.361492 0.267964
12 -0.605903 -1.711293
13 -2.319377 0.717282
14 -2.127134 1.206194
15 -1.507132 0.931622
16 -1.907376 0.059959
17 -0.039438 0.235732
18 0.867891 2.526342
19 2.069896 -1.333589
20 -1.100316 0.045523
EOF