NAME: distribution-uniform_generation_type-euclidean_city_size-30_range-90.0_mutation_type-random_sampling_generation-22_iteration-153288.0
TYPE: TSP
DIMENSION: 30
EDGE_WEIGHT_TYPE: EUC_2D
COMMENT: Generation 22, Iteration 153288.0
NODE_COORD_SECTION
1 4.564307 -13.304585
2 -12.737065 -8.202750
3 -2.407962 -4.051779
4 4.843001 9.821711
5 15.479310 5.802942
6 5.308229 5.609961
7 -10.900338 -12.182492
8 2.058600 -0.117918
9 -2.474137 5.399915
10 10.960064 -9.892196
11 -5.167991 7.279826
12 4.855706 -5.914251
13 -4.621028 -13.416361
14 -9.225685 6.250193
15 2.415402 5.037752
16 -2.694379 -3.821304
17 9.966334 -3.784158
18 -10.503964 0.086054
19 8.644364 -4.004102
20 -0.254672 -6.734806
21 6.703634 7.120884
22 -5.374658 6.147037
23 7.881784 -0.753711
24 3.591291 5.185317
25 -15.376108 5.328329
26 2.264998 -8.514257
27 5.081535 1.229071
28 -0.118401 14.124168
29 -3.007144 7.271205
30 -9.755028 3.000306
EOF