NAME: distribution-lognormal_generation_type-euclidean_city_size-20_range-0.4_mutation_type-random_sampling_generation-44_iteration-557750.0
TYPE: TSP
DIMENSION: 20
EDGE_WEIGHT_TYPE: EUC_2D
COMMENT: Generation 44, Iteration 557750.0
NODE_COORD_SECTION
1 -0.752180 -1.962189
2 -2.131790 0.517579
3 -0.551656 1.308571
4 0.788368 1.865145
5 0.384321 0.301436
6 0.104114 -0.921689
7 0.044587 -0.727543
8 2.599318 -0.738106
9 -0.127913 0.352914
10 2.920191 -0.868661
11 0.010755 -0.197734
12 -1.326504 -2.294799
13 -0.201463 1.509928
14 -0.364310 -0.832176
15 0.142200 -1.311616
16 -1.525758 1.998789
17 2.088219 0.179916
18 -2.550004 -0.505096
19 -0.350447 -0.054979
20 0.799952 2.380310
EOF