NAME: distribution-lognormal_generation_type-euclidean_city_size-20_range-2.0_mutation_type-random_sampling_generation-45_iteration-117120.0
TYPE: TSP
DIMENSION: 20
EDGE_WEIGHT_TYPE: EUC_2D
COMMENT: Generation 45, Iteration 117120.0
NODE_COORD_SECTION
1 2.872006 -1.080490
2 2.949187 -1.312464
3 2.968962 -1.394206
4 3.668009 -0.479075
5 2.910926 -1.285817
6 3.130099 -3.097019
7 3.558221 -1.322605
8 3.727019 -1.844259
9 2.850271 -1.063315
10 2.977258 -1.368094
11 3.826073 -0.982905
12 3.429743 -2.596019
13 3.742240 -0.802906
14 3.834857 -0.946459
15 2.906693 -1.173082
16 2.992910 -1.450104
17 -61.925772 0.214596
18 3.788390 24.291852
19 2.847050 -1.004871
20 2.945859 -1.302759
EOF