NAME: distribution-uniform_generation_type-euclidean_city_size-20_range-25.0_mutation_type-random_sampling_generation-38_iteration-89.0
TYPE: TSP
DIMENSION: 20
EDGE_WEIGHT_TYPE: EUC_2D
COMMENT: Generation 38, Iteration 89.0
NODE_COORD_SECTION
1 3.488405 -0.861690
2 3.163141 2.604506
3 1.365125 0.443145
4 -2.271376 1.629082
5 2.566827 -0.189220
6 2.101002 -2.206194
7 0.031482 -5.582213
8 -3.930635 1.520024
9 -3.565234 3.234629
10 -1.731326 -5.816677
11 2.683022 3.237876
12 -0.466313 -1.817005
13 -4.653655 -1.498889
14 3.641145 -0.220567
15 -1.460282 3.230325
16 -2.534612 -0.085593
17 2.323662 1.360114
18 -1.347984 2.261736
19 -0.405978 -0.372754
20 1.003584 -0.870635
EOF