NAME: distribution-uniform_generation_type-euclidean_city_size-30_range-80.0_mutation_type-random_sampling_generation-12_iteration-205401.0
TYPE: TSP
DIMENSION: 30
EDGE_WEIGHT_TYPE: EUC_2D
COMMENT: Generation 12, Iteration 205401.0
NODE_COORD_SECTION
1 6.699909 -8.141823
2 -0.505095 -12.422027
3 5.465949 -6.586310
4 -1.412315 2.433664
5 -12.363689 -1.525424
6 4.514351 -5.353173
7 13.667669 2.156289
8 8.503735 -2.068730
9 1.992445 -10.485545
10 -0.959891 3.514288
11 -3.910924 -3.544343
12 -4.441376 -0.235379
13 -8.024228 2.933284
14 8.450780 13.455065
15 -4.055753 -5.496559
16 -8.947905 4.356229
17 -5.685976 7.296873
18 8.620281 4.663560
19 -4.747005 -2.066376
20 7.814587 -0.715085
21 3.174407 -4.465647
22 -7.654685 6.915651
23 -10.864386 0.885485
24 -3.399227 4.976385
25 -7.839829 -13.088682
26 9.193766 10.834788
27 -6.513001 12.189502
28 0.520370 2.101306
29 6.294145 0.451199
30 6.412892 -2.968465
EOF