NAME: distribution-lognormal_generation_type-euclidean_city_size-20_range-0.4_mutation_type-random_sampling_generation-87_iteration-98.0
TYPE: TSP
DIMENSION: 20
EDGE_WEIGHT_TYPE: EUC_2D
COMMENT: Generation 87, Iteration 98.0
NODE_COORD_SECTION
1 -0.207983 2.152217
2 -1.069759 -0.541944
3 -0.731282 -0.518001
4 1.105872 -0.492389
5 -0.979896 0.204814
6 2.251061 -0.037699
7 -0.737350 2.639186
8 -1.387178 0.359043
9 -0.997587 2.637163
10 0.221515 1.343440
11 -0.012104 -0.441193
12 -0.197040 -2.351254
13 1.775205 0.411130
14 -3.229477 0.066748
15 0.518507 -0.914990
16 -0.895034 -2.345299
17 0.545535 -0.860767
18 0.378601 -0.148922
19 3.904459 0.653141
20 -0.256066 -1.814424
EOF