NAME: distribution-uniform_generation_type-euclidean_city_size-30_range-80.0_mutation_type-random_sampling_generation-94_iteration-180247.0
TYPE: TSP
DIMENSION: 30
EDGE_WEIGHT_TYPE: EUC_2D
COMMENT: Generation 94, Iteration 180247.0
NODE_COORD_SECTION
1 -10.118245 4.616244
2 8.965465 -0.256884
3 -5.216785 2.011975
4 -12.256600 3.366544
5 -6.638088 2.503985
6 -1.431570 2.876740
7 3.606989 -10.998238
8 6.011005 -5.099029
9 3.632975 -3.745421
10 1.853629 11.270865
11 1.576520 -1.196190
12 -0.423714 9.535825
13 1.505534 5.637955
14 -6.895046 7.354458
15 12.107125 -7.793476
16 -3.212095 1.967332
17 10.475160 10.383961
18 9.895621 3.583450
19 -3.775549 -0.550300
20 6.136654 -7.912061
21 15.587456 5.190074
22 -8.197630 -1.632680
23 -12.083263 3.985616
24 -3.938317 -15.828391
25 -6.245053 -16.213709
26 6.268356 0.916429
27 -5.979698 -0.219692
28 -8.103279 -1.538951
29 1.064730 -4.048106
30 5.827715 1.831672
EOF