NAME: distribution-uniform_generation_type-euclidean_city_size-30_range-75.0_mutation_type-random_sampling_generation-1_iteration-157097.0
TYPE: TSP
DIMENSION: 30
EDGE_WEIGHT_TYPE: EUC_2D
COMMENT: Generation 1, Iteration 157097.0
NODE_COORD_SECTION
1 3.329939 -1.857340
2 3.139464 -2.041646
3 -0.901452 0.837478
4 -8.622306 7.968816
5 3.034487 0.803813
6 3.843016 3.800640
7 4.727162 -8.102944
8 0.358358 -12.480794
9 -0.083608 2.262671
10 -0.975570 -4.300240
11 -7.200620 -5.304077
12 -16.631674 4.216513
13 6.632508 5.491199
14 -0.524347 -8.842130
15 -15.243793 4.733222
16 -0.149884 -1.581908
17 0.719449 5.283279
18 -5.517971 1.614847
19 7.642438 -1.290678
20 2.930600 1.550669
21 10.325967 11.188372
22 6.068525 7.592912
23 2.115953 -2.264818
24 5.418786 3.466242
25 -13.273873 -6.284636
26 -1.741394 6.971296
27 2.680011 2.155886
28 4.824040 -9.663836
29 4.376476 -6.470937
30 -1.300686 0.548130
EOF