NAME: distribution-uniform_generation_type-euclidean_city_size-30_range-85.0_mutation_type-random_sampling_generation-89_iteration-109903.0
TYPE: TSP
DIMENSION: 30
EDGE_WEIGHT_TYPE: EUC_2D
COMMENT: Generation 89, Iteration 109903.0
NODE_COORD_SECTION
1 7.535226 -7.940083
2 -7.103717 -5.758240
3 9.544065 2.060928
4 3.128922 6.863524
5 5.105022 3.943881
6 -5.076806 4.576551
7 9.744175 7.726736
8 4.946644 -8.891907
9 -11.913540 -9.537728
10 -11.351736 9.632390
11 11.948593 -6.666005
12 4.280821 -5.110988
13 -1.803496 -8.657374
14 -9.126742 -9.148145
15 2.524879 -1.293338
16 3.759178 3.800960
17 -5.419234 10.141215
18 -3.199382 3.997176
19 -2.756285 9.975335
20 -10.843858 0.390897
21 1.517634 -1.838078
22 -0.133443 3.008826
23 1.677750 9.132278
24 -1.682760 3.267715
25 4.241551 -0.761147
26 -6.490619 -1.408831
27 -8.579520 -14.635838
28 16.766048 -4.627985
29 -5.651913 5.820633
30 4.412543 1.936642
EOF