NAME: distribution-uniform_generation_type-euclidean_city_size-20_range-35.0_mutation_type-random_sampling_generation-68_iteration-77.0
TYPE: TSP
DIMENSION: 20
EDGE_WEIGHT_TYPE: EUC_2D
COMMENT: Generation 68, Iteration 77.0
NODE_COORD_SECTION
1 -3.605404 -0.970571
2 6.707226 0.794663
3 4.090245 0.170850
4 -2.227473 -2.330189
5 -3.143245 1.395173
6 -2.041479 -3.031634
7 -4.849164 -0.962058
8 2.727085 2.061348
9 3.252494 -7.488449
10 -1.932021 1.531395
11 4.933809 2.201352
12 -2.156223 -0.058703
13 -1.057654 -4.127375
14 -0.086291 5.701948
15 2.442038 -0.477443
16 -3.022938 -0.710313
17 2.591583 -4.905463
18 -4.867372 2.296680
19 2.707190 3.998913
20 -0.462406 4.909877
EOF