NAME: distribution-lognormal_generation_type-euclidean_city_size-20_range-0.6_mutation_type-random_sampling_generation-8_iteration-82.0
TYPE: TSP
DIMENSION: 20
EDGE_WEIGHT_TYPE: EUC_2D
COMMENT: Generation 8, Iteration 82.0
NODE_COORD_SECTION
1 -1.288968 4.099663
2 -0.155170 0.849522
3 0.906074 0.103922
4 0.516613 0.383812
5 1.042695 0.374439
6 -2.136425 0.858787
7 1.141915 0.266526
8 -2.849829 -1.252450
9 0.625839 -3.970033
10 -0.736927 -0.438374
11 -2.412076 -3.518859
12 4.044805 2.149641
13 -0.396831 3.370233
14 6.766391 -1.194613
15 -0.970219 2.754680
16 0.015001 -1.695829
17 0.127242 -1.864124
18 -1.262193 0.405182
19 -0.824997 -2.320032
20 -2.152937 0.637907
EOF