NAME: distribution-uniform_generation_type-euclidean_city_size-30_range-75.0_mutation_type-random_sampling_generation-98_iteration-160029.0
TYPE: TSP
DIMENSION: 30
EDGE_WEIGHT_TYPE: EUC_2D
COMMENT: Generation 98, Iteration 160029.0
NODE_COORD_SECTION
1 2.441376 -6.345079
2 1.849446 -0.738565
3 6.872346 -6.171416
4 4.214818 -8.740075
5 -9.154790 -1.183771
6 8.100478 -1.172581
7 2.616603 17.694707
8 5.010657 -3.351191
9 7.906796 -0.068156
10 1.418986 -2.388530
11 5.867779 5.045834
12 -13.047249 -5.937002
13 -3.636044 1.949210
14 -4.134306 -0.397545
15 -10.247336 10.872559
16 -2.121777 -8.958719
17 2.000552 -2.018356
18 0.781493 5.054805
19 -4.144710 -4.385598
20 2.548964 6.670067
21 3.816032 3.778104
22 -10.942401 -1.543240
23 -1.963978 2.450503
24 -3.136355 1.502394
25 -2.785470 4.106283
26 8.595536 1.846631
27 9.818408 -5.166733
28 -6.244123 -2.084929
29 1.771570 6.000434
30 -4.073300 -6.320045
EOF