NAME: distribution-uniform_generation_type-euclidean_city_size-20_range-35.0_mutation_type-random_sampling_generation-9_iteration-100.0
TYPE: TSP
DIMENSION: 20
EDGE_WEIGHT_TYPE: EUC_2D
COMMENT: Generation 9, Iteration 100.0
NODE_COORD_SECTION
1 -1.778023 0.143940
2 4.561845 3.908480
3 1.615519 0.385570
4 4.686826 5.069878
5 0.133503 2.925890
6 -1.491208 -3.432732
7 -4.851763 6.941312
8 2.053622 4.008879
9 1.910597 2.896102
10 6.830561 -4.255165
11 -5.228263 -3.189765
12 -1.140213 -0.414214
13 -1.954239 0.428961
14 -1.746063 -3.703916
15 1.194329 -4.281181
16 4.081113 -0.817724
17 -4.133099 -0.118201
18 -6.890097 0.824861
19 3.796435 -3.618694
20 -1.651382 -3.702281
EOF