NAME: distribution-lognormal_generation_type-euclidean_city_size-20_range-2.2_mutation_type-random_sampling_generation-43_iteration-337047.0
TYPE: TSP
DIMENSION: 20
EDGE_WEIGHT_TYPE: EUC_2D
COMMENT: Generation 43, Iteration 337047.0
NODE_COORD_SECTION
1 3.952788 1.073880
2 2.882648 1.977990
3 4.610328 -25.607088
4 3.959005 0.046329
5 0.803411 1.514227
6 3.729829 2.724452
7 3.855504 1.413293
8 3.840282 1.908893
9 2.974790 1.127744
10 3.867968 0.836815
11 3.808393 1.841227
12 3.004175 1.212546
13 2.995923 1.189476
14 3.319019 1.642922
15 3.763566 1.676262
16 3.801679 1.820011
17 -63.932986 -0.506118
18 2.979701 1.160003
19 2.784104 1.746037
20 2.999874 1.201100
EOF