NAME: distribution-lognormal_generation_type-euclidean_city_size-30_range-1.2_mutation_type-random_sampling_generation-1_iteration-390248.0
TYPE: TSP
DIMENSION: 30
EDGE_WEIGHT_TYPE: EUC_2D
COMMENT: Generation 1, Iteration 390248.0
NODE_COORD_SECTION
1 -1.945485 2.329165
2 0.381641 1.067149
3 -4.517465 -4.774335
4 -0.869154 0.658848
5 14.556297 4.723666
6 -0.670569 0.763561
7 -0.509033 0.118194
8 0.968450 2.630313
9 0.546666 0.385751
10 0.393194 2.777083
11 -1.905791 1.003122
12 -1.549244 2.010371
13 1.637086 1.383005
14 -1.703479 0.515381
15 1.316448 -3.272665
16 -0.472004 1.336966
17 -0.737040 0.890851
18 -0.398879 -0.545984
19 0.466462 0.498479
20 -2.297464 0.662731
21 -2.987961 -1.110891
22 -1.605330 2.409618
23 1.433436 -2.377621
24 -1.911775 -0.218670
25 -1.267727 0.516355
26 1.904893 1.048087
27 -2.029392 1.013037
28 -0.436949 0.055947
29 -1.667230 -3.000820
30 5.877398 -13.496693
EOF