NAME: distribution-uniform_generation_type-euclidean_city_size-30_range-75.0_mutation_type-random_sampling_generation-38_iteration-236190.0
TYPE: TSP
DIMENSION: 30
EDGE_WEIGHT_TYPE: EUC_2D
COMMENT: Generation 38, Iteration 236190.0
NODE_COORD_SECTION
1 0.142844 -3.050210
2 2.323334 -3.781007
3 -3.180918 -2.541489
4 8.537461 3.761169
5 12.215681 -0.181254
6 -9.207523 7.974433
7 -1.606065 2.653215
8 -1.873257 -13.185304
9 -3.127685 11.243234
10 2.982393 -0.328383
11 -0.323581 5.152714
12 -8.151416 0.929928
13 6.649649 8.978107
14 7.053909 3.080116
15 2.132933 2.884559
16 1.902412 1.294345
17 -6.831602 -1.207623
18 9.846167 -3.744701
19 7.958538 -1.729137
20 -10.617904 11.503257
21 5.153764 3.594566
22 -7.011318 -4.375800
23 -3.554540 -0.656373
24 -9.739642 -6.497043
25 -5.471076 1.331825
26 -4.456549 -5.384274
27 6.519061 -6.147701
28 3.726911 5.623432
29 1.048145 -5.034680
30 -3.040126 -12.159919
EOF