NAME: distribution-uniform_generation_type-euclidean_city_size-20_range-25.0_mutation_type-random_sampling_generation-85_iteration-104.0
TYPE: TSP
DIMENSION: 20
EDGE_WEIGHT_TYPE: EUC_2D
COMMENT: Generation 85, Iteration 104.0
NODE_COORD_SECTION
1 1.670324 -2.082860
2 3.479304 0.379594
3 -2.364411 4.997635
4 2.096968 2.669376
5 2.863927 3.380230
6 2.637336 1.318235
7 -3.064350 -4.151328
8 0.441863 -0.339504
9 -3.937970 -0.109267
10 1.225062 -3.709679
11 -0.339233 0.918332
12 -4.464416 0.524951
13 3.138171 -1.796207
14 -0.430262 2.340083
15 1.063413 0.875807
16 -0.452298 -2.973744
17 -0.825443 -2.112569
18 0.871661 0.183372
19 0.941231 -1.737064
20 -4.550878 1.424608
EOF