NAME: distribution-lognormal_generation_type-euclidean_city_size-20_range-0.4_mutation_type-random_sampling_generation-11_iteration-768878.0
TYPE: TSP
DIMENSION: 20
EDGE_WEIGHT_TYPE: EUC_2D
COMMENT: Generation 11, Iteration 768878.0
NODE_COORD_SECTION
1 -1.039259 1.997625
2 1.878651 -0.111392
3 0.127319 0.020403
4 1.343611 -2.687529
5 1.370388 -0.132557
6 -0.138430 -0.883010
7 0.176626 1.246786
8 -0.892760 0.227098
9 -1.379160 0.141603
10 0.401352 -3.781834
11 1.466131 1.421973
12 -2.620756 -1.121091
13 0.448606 0.511269
14 1.670936 1.674832
15 -0.635516 -0.124125
16 -3.516980 0.348944
17 -0.625001 -0.197138
18 0.901310 -0.241894
19 0.303272 0.969998
20 0.759659 0.720041
EOF