NAME: distribution-lognormal_generation_type-euclidean_city_size-20_range-2.2_mutation_type-random_sampling_generation-61_iteration-737505.0
TYPE: TSP
DIMENSION: 20
EDGE_WEIGHT_TYPE: EUC_2D
COMMENT: Generation 61, Iteration 737505.0
NODE_COORD_SECTION
1 5.148101 -15.777367
2 4.446918 0.681366
3 4.490715 1.101283
4 4.510228 0.975539
5 4.565923 0.122819
6 4.468360 0.752657
7 5.012007 0.195395
8 3.318450 1.695639
9 -83.392885 -0.169546
10 4.463763 0.713068
11 4.401714 -0.950485
12 3.484288 1.522901
13 4.479178 0.807051
14 4.427601 5.198759
15 4.487015 0.804314
16 4.534972 1.014842
17 3.517902 0.857909
18 4.486473 0.846856
19 4.567230 -0.856542
20 4.582050 0.463540
EOF