NAME: distribution-uniform_generation_type-euclidean_city_size-30_range-55.0_mutation_type-random_sampling_generation-58_iteration-107246.0
TYPE: TSP
DIMENSION: 30
EDGE_WEIGHT_TYPE: EUC_2D
COMMENT: Generation 58, Iteration 107246.0
NODE_COORD_SECTION
1 -2.869595 0.454181
2 -6.920559 5.452548
3 -0.519715 -3.243627
4 -9.233455 3.138129
5 3.500187 0.389436
6 1.673867 1.103240
7 -4.638506 -3.065934
8 8.267338 1.336973
9 6.740347 -4.766129
10 -3.061283 -4.623511
11 4.671161 -6.555964
12 -6.333185 -1.341283
13 -3.159889 -5.728302
14 -1.649166 -0.056309
15 0.904788 -2.353970
16 1.191355 2.464986
17 -2.350936 -6.664799
18 -6.609715 1.894131
19 3.780295 -3.897856
20 -3.393215 1.448156
21 -0.296726 3.146362
22 3.263808 -6.055377
23 0.969183 2.716955
24 0.118514 -1.782699
25 -0.195316 -3.549014
26 -2.549734 9.220959
27 0.354655 2.020078
28 7.748960 6.791717
29 6.730446 5.720509
30 3.866091 6.386413
EOF