NAME: distribution-lognormal_generation_type-euclidean_city_size-20_range-0.8_mutation_type-random_sampling_generation-21_iteration-85.0
TYPE: TSP
DIMENSION: 20
EDGE_WEIGHT_TYPE: EUC_2D
COMMENT: Generation 21, Iteration 85.0
NODE_COORD_SECTION
1 -2.181306 -0.732605
2 0.142180 -0.791725
3 -3.632568 -6.663807
4 -1.839551 -0.019615
5 -1.204863 -0.029637
6 -0.776360 -0.558920
7 1.412657 -2.151250
8 7.823943 1.364307
9 -1.353730 0.597501
10 2.044017 0.567038
11 -2.670297 0.160472
12 1.398509 -0.250849
13 0.813462 1.053935
14 0.648801 -1.360650
15 -4.721170 7.824953
16 -0.207819 0.514668
17 2.117457 0.563193
18 1.211127 1.264729
19 -0.352030 -1.632254
20 1.327542 0.280516
EOF