NAME: distribution-uniform_generation_type-euclidean_city_size-30_range-90.0_mutation_type-random_sampling_generation-96_iteration-216402.0
TYPE: TSP
DIMENSION: 30
EDGE_WEIGHT_TYPE: EUC_2D
COMMENT: Generation 96, Iteration 216402.0
NODE_COORD_SECTION
1 8.771748 -1.249183
2 -6.416477 11.538696
3 -7.311932 -2.873211
4 -0.574633 -5.108417
5 -3.378894 -1.398310
6 -5.737890 10.162213
7 0.913773 2.332964
8 -1.416080 5.509781
9 7.234734 -3.221418
10 10.295211 -0.024343
11 -8.476914 -14.678480
12 5.727672 14.930555
13 -5.081155 1.295480
14 10.187188 -2.125677
15 -3.700001 10.115228
16 -3.310425 -6.101354
17 -7.156908 8.022038
18 8.842969 -2.022571
19 -5.437985 -7.522502
20 2.848261 0.187553
21 17.815227 -0.641329
22 -1.833876 -1.833340
23 6.510906 -8.553984
24 -0.579555 0.987364
25 -5.647001 3.966291
26 -8.631211 -12.714696
27 -15.268378 1.838240
28 -1.905985 -11.477088
29 13.330921 0.211828
30 -0.613311 10.447673
EOF