NAME: distribution-lognormal_generation_type-euclidean_city_size-20_range-2.0_mutation_type-random_sampling_generation-76_iteration-445625.0
TYPE: TSP
DIMENSION: 20
EDGE_WEIGHT_TYPE: EUC_2D
COMMENT: Generation 76, Iteration 445625.0
NODE_COORD_SECTION
1 2.595122 -1.718762
2 2.950423 -0.301493
3 3.715100 -5.450982
4 3.055622 -0.573615
5 3.109473 -0.698820
6 3.149287 -0.793051
7 2.953511 -1.469040
8 2.359371 -0.876942
9 -56.717121 0.212339
10 3.154294 -0.800064
11 3.079227 -0.648956
12 3.130959 -0.919344
13 3.107120 -0.701598
14 3.019599 -0.686250
15 3.055795 -0.769772
16 3.107707 -0.728005
17 2.802450 -1.519809
18 1.619918 -1.755647
19 3.629019 21.267450
20 3.123123 -1.067638
EOF