NAME: distribution-uniform_generation_type-euclidean_city_size-20_range-30.0_mutation_type-random_sampling_generation-42_iteration-99.0
TYPE: TSP
DIMENSION: 20
EDGE_WEIGHT_TYPE: EUC_2D
COMMENT: Generation 42, Iteration 99.0
NODE_COORD_SECTION
1 -4.032620 1.353401
2 -0.067062 2.361116
3 -3.332429 -6.197794
4 0.180343 -8.427435
5 1.716749 0.418978
6 -2.623380 -2.119203
7 4.187717 4.911613
8 -6.676725 -2.431161
9 1.942572 -2.964774
10 -5.290427 3.198204
11 1.668239 2.942910
12 0.519364 -1.567329
13 2.071372 2.152721
14 7.263903 -0.062299
15 4.818489 -1.390680
16 4.455238 -4.085759
17 0.957321 2.921010
18 -4.044148 1.563433
19 -0.548451 3.786736
20 -3.166063 3.636313
EOF