NAME: distribution-uniform_generation_type-euclidean_city_size-30_range-65.0_mutation_type-random_sampling_generation-78_iteration-103751.0
TYPE: TSP
DIMENSION: 30
EDGE_WEIGHT_TYPE: EUC_2D
COMMENT: Generation 78, Iteration 103751.0
NODE_COORD_SECTION
1 4.352056 -6.953134
2 -2.409066 1.758566
3 2.743635 -2.508016
4 6.418428 4.188334
5 -7.631625 -3.518056
6 0.408483 5.360355
7 -1.401005 -7.734010
8 -5.457332 7.621384
9 4.395707 1.517345
10 10.860494 3.531366
11 -0.639956 -1.789954
12 5.659290 -0.368653
13 1.848401 3.116446
14 -5.929850 -3.634781
15 3.404545 -3.451665
16 7.957352 4.354881
17 -6.262799 9.954533
18 -0.372325 -3.969159
19 -8.669711 1.635382
20 -7.949200 -2.136482
21 0.649843 2.635555
22 3.887760 -7.515772
23 -6.741135 -8.922823
24 7.236960 -7.402883
25 5.807918 6.769111
26 2.250484 -3.248060
27 0.202918 1.564162
28 -3.982775 0.755358
29 -4.145835 11.110896
30 -6.491658 -2.720228
EOF