NAME: distribution-uniform_generation_type-euclidean_city_size-30_range-75.0_mutation_type-random_sampling_generation-80_iteration-182184.0
TYPE: TSP
DIMENSION: 30
EDGE_WEIGHT_TYPE: EUC_2D
COMMENT: Generation 80, Iteration 182184.0
NODE_COORD_SECTION
1 1.177510 -0.165971
2 -1.270566 -0.196787
3 -7.057092 -6.605321
4 -12.238202 2.241737
5 4.536176 5.570677
6 -11.996595 -10.214941
7 -3.680497 -2.390139
8 -0.423822 10.641130
9 4.152939 -0.378643
10 -2.560987 4.464050
11 7.721377 -7.331772
12 8.006276 -0.551424
13 4.408344 -1.320426
14 12.035397 3.619336
15 -7.291658 10.419569
16 -2.334678 -7.971307
17 -1.178011 -4.470824
18 -4.689786 7.752244
19 -1.128281 3.899429
20 -0.846106 -2.777318
21 14.033325 -5.380755
22 7.009508 11.197360
23 2.576559 -4.865090
24 3.556853 1.977070
25 -2.453132 2.467441
26 -1.864764 5.206164
27 -1.857496 2.090663
28 -1.178375 -10.031619
29 -7.950684 1.395012
30 2.786467 -8.289544
EOF