NAME: distribution-lognormal_generation_type-euclidean_city_size-20_range-0.2_mutation_type-random_sampling_generation-0_iteration-13137073.0
TYPE: TSP
DIMENSION: 20
EDGE_WEIGHT_TYPE: EUC_2D
COMMENT: Generation 0, Iteration 13137073.0
NODE_COORD_SECTION
1 -0.779119 -0.098306
2 0.730848 -0.205957
3 -0.246707 0.140559
4 -0.779119 -0.098306
5 0.211084 -1.386270
6 0.675656 0.185439
7 0.675656 0.185439
8 0.675656 0.185439
9 0.675656 0.185439
10 -0.246707 0.140559
11 -0.246707 0.140559
12 -0.246707 0.140559
13 -0.246707 0.140559
14 -0.779119 -0.098306
15 -0.351489 1.334703
16 -0.047662 -1.305244
17 0.675656 0.185439
18 -0.779119 -0.098306
19 -0.246707 0.140559
20 0.675656 0.185439
EOF