NAME: distribution-uniform_generation_type-euclidean_city_size-30_range-65.0_mutation_type-random_sampling_generation-85_iteration-360206.0
TYPE: TSP
DIMENSION: 30
EDGE_WEIGHT_TYPE: EUC_2D
COMMENT: Generation 85, Iteration 360206.0
NODE_COORD_SECTION
1 5.426157 -10.027114
2 9.290584 -4.655944
3 -4.490028 -4.203386
4 2.223924 2.998195
5 -1.903720 -1.462030
6 -0.889453 -4.840628
7 -1.345431 2.992590
8 -6.390293 -6.434668
9 0.626172 -5.330347
10 1.939330 4.559690
11 -5.234012 -2.037098
12 -8.616301 -2.891042
13 -6.371728 8.026198
14 7.796742 -1.169657
15 3.604631 -2.312473
16 5.262347 8.074216
17 -0.068983 0.255087
18 6.293060 -8.820105
19 7.633295 7.511899
20 3.415701 -1.088583
21 -0.795142 10.991171
22 -10.707200 1.760809
23 2.747859 -0.875163
24 2.711206 4.215350
25 -9.637348 2.191873
26 -9.673409 -0.281226
27 -2.441793 -1.087321
28 5.732306 6.175974
29 -0.811240 -4.419504
30 4.672768 2.183238
EOF