NAME: distribution-uniform_generation_type-euclidean_city_size-20_range-10.0_mutation_type-random_sampling_generation-25_iteration-90.0
TYPE: TSP
DIMENSION: 20
EDGE_WEIGHT_TYPE: EUC_2D
COMMENT: Generation 25, Iteration 90.0
NODE_COORD_SECTION
1 3.104760 -2.208330
2 -0.929473 0.726448
3 0.138676 0.095643
4 -0.384970 -0.671807
5 -0.425903 1.863291
6 -3.195309 -1.566159
7 0.151204 -0.945118
8 -0.370629 -1.847696
9 2.072781 2.104637
10 -2.294305 -0.253600
11 -0.538356 -1.189489
12 -2.318837 2.465899
13 0.632282 -1.849927
14 2.386239 0.282577
15 -0.081279 -0.419192
16 1.826950 2.458532
17 -0.911593 1.704361
18 1.116706 0.738615
19 0.730600 -1.192513
20 -0.709545 -0.296171
EOF