NAME: distribution-uniform_generation_type-euclidean_city_size-20_range-50.0_mutation_type-random_sampling_generation-72_iteration-92.0
TYPE: TSP
DIMENSION: 20
EDGE_WEIGHT_TYPE: EUC_2D
COMMENT: Generation 72, Iteration 92.0
NODE_COORD_SECTION
1 0.197138 4.731059
2 -4.964855 -2.415940
3 3.829923 -4.307492
4 3.107589 -2.460441
5 -5.044474 -0.342275
6 1.352166 -5.579672
7 -8.295382 -1.619516
8 5.409696 9.574802
9 2.442179 -7.803801
10 8.115606 -3.533310
11 0.480067 7.344872
12 -5.691882 -3.200767
13 8.008768 0.935087
14 -6.790666 -0.687791
15 2.493081 8.333278
16 -7.327718 1.890145
17 -1.601319 -5.969187
18 -1.550809 1.456837
19 -2.771023 7.036410
20 8.601916 -3.382299
EOF