NAME: distribution-uniform_generation_type-euclidean_city_size-20_range-10.0_mutation_type-random_sampling_generation-97_iteration-85.0
TYPE: TSP
DIMENSION: 20
EDGE_WEIGHT_TYPE: EUC_2D
COMMENT: Generation 97, Iteration 85.0
NODE_COORD_SECTION
1 -3.088607 0.085482
2 2.199812 0.164190
3 -1.355385 0.085079
4 -1.069358 -0.236222
5 -0.143899 4.091614
6 -0.209324 1.697770
7 2.555442 -0.108574
8 2.311859 0.107816
9 0.125268 0.253297
10 3.088666 0.080028
11 -0.240770 -1.358981
12 0.267165 1.471827
13 -1.685406 -0.023818
14 -1.355385 0.085079
15 -0.717880 -1.067213
16 -0.255526 0.127647
17 -0.129745 -2.951822
18 -0.255526 0.127647
19 0.765694 -2.157617
20 -0.807096 -0.473229
EOF