NAME: distribution-uniform_generation_type-euclidean_city_size-30_range-35.0_mutation_type-random_sampling_generation-80_iteration-245953.0
TYPE: TSP
DIMENSION: 30
EDGE_WEIGHT_TYPE: EUC_2D
COMMENT: Generation 80, Iteration 245953.0
NODE_COORD_SECTION
1 2.882406 -2.747902
2 -7.037645 0.874165
3 2.789431 3.049053
4 -1.247090 -5.185881
5 3.602445 5.089503
6 5.680912 -1.263470
7 2.521136 1.156122
8 6.652211 -0.200355
9 -1.029497 4.842491
10 -1.031782 -2.542878
11 -0.268950 2.413492
12 -0.786926 -2.767856
13 -1.332712 0.177647
14 2.699275 -0.356906
15 1.202611 2.448018
16 -4.015770 1.110393
17 1.244760 4.364470
18 2.551885 1.353554
19 -2.959887 -3.112062
20 -4.687540 4.490563
21 -1.020096 -1.303877
22 1.379891 -6.038154
23 -3.522387 0.240534
24 -1.252156 -3.431756
25 2.465616 0.974572
26 -1.508170 1.592088
27 -1.967324 -0.106227
28 -3.397463 0.558149
29 1.440719 -1.460192
30 -0.047901 -4.217297
EOF