NAME: distribution-uniform_generation_type-euclidean_city_size-20_range-15.0_mutation_type-random_sampling_generation-74_iteration-97.0
TYPE: TSP
DIMENSION: 20
EDGE_WEIGHT_TYPE: EUC_2D
COMMENT: Generation 74, Iteration 97.0
NODE_COORD_SECTION
1 -0.098988 -0.264632
2 0.890758 0.039755
3 1.688256 -0.187069
4 2.860103 -0.127102
5 -3.124949 -1.008686
6 -0.333237 1.411847
7 0.061106 -3.034810
8 -0.247640 1.230872
9 -2.964817 1.496390
10 -0.587978 -0.201962
11 -0.258043 1.183944
12 1.104573 -3.880920
13 -0.462266 -0.192787
14 1.766348 3.136382
15 0.068507 -0.260066
16 2.540316 0.756285
17 0.173275 -0.767833
18 -0.785508 1.215329
19 0.099629 -0.164891
20 -2.389444 -0.380047
EOF