NAME: distribution-uniform_generation_type-euclidean_city_size-30_range-80.0_mutation_type-random_sampling_generation-85_iteration-134210.0
TYPE: TSP
DIMENSION: 30
EDGE_WEIGHT_TYPE: EUC_2D
COMMENT: Generation 85, Iteration 134210.0
NODE_COORD_SECTION
1 -6.809361 1.549826
2 6.431495 -6.351719
3 -1.318746 0.558281
4 11.048673 7.515882
5 0.841819 -5.391278
6 -3.517602 -5.528729
7 -2.146501 4.197599
8 -2.262096 5.561831
9 7.776231 -2.532741
10 -4.442307 -3.867437
11 -0.219810 1.521483
12 -5.470636 4.880448
13 -13.383144 1.839821
14 18.192856 0.727028
15 7.136131 -6.845241
16 -0.620272 8.980994
17 4.057160 12.786256
18 -1.895279 -10.874047
19 -0.869277 -2.180362
20 -2.298912 -5.260700
21 7.927695 -3.034016
22 -14.673116 -0.451404
23 -0.295423 -5.652661
24 -3.674409 -14.632540
25 -9.799206 7.335708
26 3.724703 17.605939
27 9.941483 -2.003693
28 -4.866221 -0.501788
29 -5.701078 2.319517
30 7.185149 -2.272260
EOF