NAME: distribution-uniform_generation_type-euclidean_city_size-30_range-45.0_mutation_type-random_sampling_generation-6_iteration-178479.0
TYPE: TSP
DIMENSION: 30
EDGE_WEIGHT_TYPE: EUC_2D
COMMENT: Generation 6, Iteration 178479.0
NODE_COORD_SECTION
1 -0.015271 0.081424
2 -2.493946 -4.469690
3 3.328441 0.924675
4 3.097464 -1.404812
5 -0.114721 1.874379
6 4.923676 -1.910656
7 8.951015 -2.071815
8 -5.843395 -0.132570
9 1.629568 -1.292317
10 3.919320 -5.398806
11 0.251983 2.067765
12 -4.855859 -2.291183
13 0.967682 8.147914
14 -5.881873 3.782962
15 -3.853787 3.718909
16 0.086536 -3.554074
17 -0.846231 1.807946
18 -0.482375 3.698295
19 -1.062565 -0.741669
20 0.903057 -4.268176
21 2.021956 -4.185971
22 2.022203 0.019137
23 2.825221 3.121656
24 5.720977 4.028059
25 1.044078 0.323902
26 -5.860533 -5.835011
27 1.300854 9.057913
28 -0.123356 -5.100174
29 -2.603393 -0.919551
30 -8.956725 0.921541
EOF