NAME: distribution-uniform_generation_type-euclidean_city_size-20_range-25.0_mutation_type-random_sampling_generation-22_iteration-72.0
TYPE: TSP
DIMENSION: 20
EDGE_WEIGHT_TYPE: EUC_2D
COMMENT: Generation 22, Iteration 72.0
NODE_COORD_SECTION
1 1.408526 -3.650141
2 -1.258209 0.806743
3 -1.102011 -2.737979
4 -1.061164 0.340519
5 1.294369 -0.002816
6 3.108883 2.171404
7 -0.976864 -0.381361
8 -3.119700 0.347579
9 -3.851929 -0.664031
10 2.714582 2.382641
11 1.627080 -2.174739
12 -3.933268 0.337893
13 2.123667 5.346669
14 -0.883118 -0.384606
15 -2.132241 5.131864
16 2.823045 1.942582
17 2.105827 -2.241357
18 -3.742389 -2.094923
19 0.097464 -1.125582
20 4.757448 -3.350360
EOF