NAME: distribution-lognormal_generation_type-euclidean_city_size-20_range-2.2_mutation_type-random_sampling_generation-9_iteration-17996758.0
TYPE: TSP
DIMENSION: 20
EDGE_WEIGHT_TYPE: EUC_2D
COMMENT: Generation 9, Iteration 17996758.0
NODE_COORD_SECTION
1 2.762987 -1.430812
2 3.375071 -1.430894
3 2.797770 -1.767947
4 2.753089 -1.396144
5 2.729437 -1.329215
6 1.840468 -1.299701
7 3.330703 0.533409
8 2.771324 -1.449942
9 3.540089 -7.908466
10 3.023974 -1.633471
11 2.757305 -1.133599
12 -55.048102 0.480886
13 1.844397 -0.359593
14 2.828924 -1.343488
15 2.809154 -1.292635
16 2.564431 -0.905250
17 4.123385 20.671015
18 3.599042 6.464485
19 2.816752 -1.994315
20 2.779802 -1.474323
EOF