NAME: distribution-uniform_generation_type-euclidean_city_size-30_range-65.0_mutation_type-random_sampling_generation-82_iteration-106942.0
TYPE: TSP
DIMENSION: 30
EDGE_WEIGHT_TYPE: EUC_2D
COMMENT: Generation 82, Iteration 106942.0
NODE_COORD_SECTION
1 -3.232519 4.274452
2 5.463430 5.237444
3 -2.413271 -5.135144
4 -2.220449 -8.810427
5 4.397364 -1.830577
6 -12.129728 3.787434
7 0.125709 -2.486665
8 -3.339332 -3.195358
9 0.928134 7.669582
10 -8.101905 7.200148
11 -6.930063 0.476505
12 5.596072 -7.480106
13 -3.933890 7.456859
14 -0.221351 -3.717781
15 2.048030 -4.640901
16 12.418378 6.767003
17 -2.832230 -8.487557
18 4.281471 -2.112642
19 4.639739 -0.463746
20 -6.474012 -2.402187
21 7.640118 -3.034594
22 6.884694 -0.879246
23 6.338348 1.506923
24 2.626280 -4.079668
25 -7.659163 -4.820879
26 0.746530 2.884443
27 -0.641339 4.613858
28 -4.023761 -1.477881
29 -0.994040 3.073361
30 1.012755 10.107344
EOF