NAME: distribution-uniform_generation_type-euclidean_city_size-30_range-95.0_mutation_type-random_sampling_generation-87_iteration-352333.0
TYPE: TSP
DIMENSION: 30
EDGE_WEIGHT_TYPE: EUC_2D
COMMENT: Generation 87, Iteration 352333.0
NODE_COORD_SECTION
1 9.736669 -7.539992
2 -7.741096 0.534893
3 11.281991 10.239787
4 9.138399 -5.562934
5 -5.727101 1.296410
6 7.426979 5.738143
7 -10.882395 6.888452
8 -1.113044 7.561565
9 -3.667267 -2.830705
10 -6.672463 -4.525968
11 -2.390732 -9.305138
12 15.553018 9.528247
13 -5.338668 9.624234
14 11.440288 -19.442947
15 -6.586425 1.979982
16 -4.973974 -1.707317
17 -7.734788 11.273628
18 18.649423 3.356468
19 1.338064 -4.642919
20 0.579086 2.371025
21 0.819685 -1.678221
22 4.275562 -1.689847
23 3.787569 -6.710744
24 5.562408 4.296536
25 -0.930905 -4.386539
26 -4.096743 2.964444
27 -5.481401 5.719292
28 -13.845155 -16.226358
29 -5.608345 1.905600
30 -6.798639 0.970925
EOF