NAME: distribution-lognormal_generation_type-euclidean_city_size-20_range-0.4_mutation_type-random_sampling_generation-71_iteration-73.0
TYPE: TSP
DIMENSION: 20
EDGE_WEIGHT_TYPE: EUC_2D
COMMENT: Generation 71, Iteration 73.0
NODE_COORD_SECTION
1 1.256105 0.686973
2 -1.835490 -0.509556
3 -1.864046 -0.040704
4 1.112392 1.959713
5 1.094641 1.736718
6 -0.621421 1.573886
7 1.107805 -0.792320
8 -3.889961 0.452247
9 -0.155923 0.669886
10 0.708555 1.113100
11 -0.206538 -3.649634
12 -0.976218 1.998876
13 1.724077 0.628934
14 0.884123 -0.995434
15 1.026862 -0.892976
16 -0.624074 -0.684570
17 0.321799 -1.291639
18 -1.834618 -0.343302
19 2.225731 -0.518321
20 0.546202 -1.101877
EOF