NAME: distribution-lognormal_generation_type-euclidean_city_size-20_range-2.0_mutation_type-random_sampling_generation-73_iteration-153666.0
TYPE: TSP
DIMENSION: 20
EDGE_WEIGHT_TYPE: EUC_2D
COMMENT: Generation 73, Iteration 153666.0
NODE_COORD_SECTION
1 2.152902 -0.108089
2 1.568891 11.129175
3 1.253926 0.136842
4 -0.045223 0.007609
5 2.034304 -0.307626
6 1.696165 -15.520370
7 1.984872 -0.307623
8 0.491447 -0.055114
9 -32.538717 0.083083
10 2.717036 4.766586
11 1.325469 0.675704
12 1.851257 0.844860
13 2.273252 -1.184791
14 2.163241 0.254776
15 2.125425 -0.087117
16 1.955742 1.648881
17 1.739203 -0.994015
18 1.198286 -0.078549
19 1.799987 -0.982432
20 2.252535 0.078212
EOF