NAME: distribution-lognormal_generation_type-euclidean_city_size-20_range-3.2_mutation_type-random_sampling_generation-0_iteration-737004.0
TYPE: TSP
DIMENSION: 20
EDGE_WEIGHT_TYPE: EUC_2D
COMMENT: Generation 0, Iteration 737004.0
NODE_COORD_SECTION
1 2.024124 -0.970877
2 1.669461 -1.582790
3 1.947552 -1.100532
4 1.107195 -1.077757
5 -39.640447 0.429932
6 1.634425 -1.289836
7 2.406018 -9.204267
8 1.655250 -1.333285
9 2.519736 -0.739947
10 1.982722 -0.912392
11 2.271884 -0.454532
12 2.556681 7.965354
13 2.227244 -0.348863
14 2.265419 -0.441057
15 2.214934 -1.475219
16 1.897840 -0.631816
17 2.461635 -0.850716
18 1.814213 -1.391893
19 2.039746 -1.411443
20 2.944368 16.821936
EOF