NAME: distribution-lognormal_generation_type-euclidean_city_size-20_range-0.6_mutation_type-random_sampling_generation-36_iteration-91.0
TYPE: TSP
DIMENSION: 20
EDGE_WEIGHT_TYPE: EUC_2D
COMMENT: Generation 36, Iteration 91.0
NODE_COORD_SECTION
1 3.467177 2.108534
2 0.486932 4.155329
3 -4.761127 1.361249
4 -1.989004 4.901522
5 -0.521151 0.463906
6 0.521504 -0.208325
7 -0.073561 -1.313768
8 1.313232 -1.248323
9 -2.382225 -2.988462
10 1.745348 -1.438377
11 -0.321437 -1.946023
12 1.732011 -1.264001
13 2.149088 -0.626391
14 3.413830 0.927516
15 2.872033 -0.344686
16 -3.556591 -0.986056
17 -0.256418 -1.408302
18 -0.151850 0.479165
19 -1.893290 0.019896
20 -1.794502 -0.644402
EOF