NAME: distribution-uniform_generation_type-euclidean_city_size-30_range-80.0_mutation_type-random_sampling_generation-15_iteration-127592.0
TYPE: TSP
DIMENSION: 30
EDGE_WEIGHT_TYPE: EUC_2D
COMMENT: Generation 15, Iteration 127592.0
NODE_COORD_SECTION
1 9.197205 -7.775612
2 -8.939333 -10.106956
3 3.439514 1.270640
4 -7.129991 -0.190457
5 2.887085 10.999589
6 -7.267133 -3.858324
7 -10.324263 2.529687
8 -8.557170 -12.180703
9 7.336932 -0.942496
10 14.501811 -7.796411
11 -5.926742 -5.108385
12 -4.042017 -3.100051
13 0.291147 -0.992467
14 -3.852783 2.331149
15 12.219133 2.354311
16 -0.985718 4.442678
17 -2.250229 9.557207
18 0.017155 12.367361
19 2.291821 2.692156
20 9.577945 -0.466008
21 8.354216 0.637053
22 -9.224025 -1.652626
23 -3.490647 -5.228046
24 -3.202807 -6.819868
25 10.167778 2.216831
26 -5.468774 0.704087
27 1.952520 -0.881466
28 -5.669158 17.502810
29 8.559911 -5.407179
30 -4.463382 2.901496
EOF