NAME: distribution-lognormal_generation_type-euclidean_city_size-20_range-0.4_mutation_type-random_sampling_generation-0_iteration-104.0
TYPE: TSP
DIMENSION: 20
EDGE_WEIGHT_TYPE: EUC_2D
COMMENT: Generation 0, Iteration 104.0
NODE_COORD_SECTION
1 -1.590650 -0.798017
2 -3.071789 -1.196107
3 0.836697 -1.150652
4 0.645694 -0.307716
5 -1.630289 0.252287
6 1.457575 -3.971214
7 1.545561 2.599175
8 -0.606645 -0.158586
9 0.084395 -0.625441
10 -1.402053 2.840492
11 -0.608294 0.059099
12 1.308240 -0.695166
13 1.556247 -0.267177
14 3.517313 1.089470
15 0.827344 0.719005
16 0.471079 0.248016
17 -0.989469 -0.652997
18 0.349556 0.792899
19 -1.521341 0.948877
20 -1.179171 0.273751
EOF