NAME: distribution-lognormal_generation_type-euclidean_city_size-20_range-2.2_mutation_type-random_sampling_generation-3_iteration-174714.0
TYPE: TSP
DIMENSION: 20
EDGE_WEIGHT_TYPE: EUC_2D
COMMENT: Generation 3, Iteration 174714.0
NODE_COORD_SECTION
1 2.760027 -1.484687
2 2.344569 -1.999575
3 2.751056 -1.452184
4 -43.079478 1.324355
5 -1.581404 -4.980200
6 3.921034 22.900140
7 -0.055318 -1.017147
8 2.465382 -4.033621
9 2.595534 -2.102485
10 2.992428 9.389119
11 2.750748 -1.225985
12 2.663909 -2.214122
13 2.712223 -1.371969
14 1.489081 -1.730837
15 2.548993 -1.999291
16 2.787656 -1.553967
17 2.627746 -2.139251
18 1.941261 -1.918024
19 2.777244 -0.311667
20 2.587309 -2.078600
EOF