NAME: distribution-uniform_generation_type-euclidean_city_size-30_range-60.0_mutation_type-random_sampling_generation-48_iteration-636830.0
TYPE: TSP
DIMENSION: 30
EDGE_WEIGHT_TYPE: EUC_2D
COMMENT: Generation 48, Iteration 636830.0
NODE_COORD_SECTION
1 0.586217 -3.864079
2 -6.441409 6.502275
3 -3.987455 7.117902
4 2.075210 -0.849786
5 3.847543 0.722804
6 -4.860875 -1.410364
7 -0.288776 4.093065
8 -5.223989 8.299038
9 3.220625 3.427374
10 -4.715979 -1.969569
11 -7.820911 -8.273236
12 0.469132 -5.331804
13 4.507166 8.645672
14 -1.613261 -5.436305
15 4.006105 4.011744
16 -5.799665 -8.241830
17 -3.107156 -7.714613
18 3.175407 -5.389780
19 -0.812259 -5.227880
20 -7.654868 7.206218
21 -0.803855 8.026145
22 9.489734 -6.138187
23 -1.532456 -3.266330
24 7.357655 2.704955
25 6.178244 4.085538
26 6.960401 -3.040579
27 -12.068475 -0.455947
28 10.135081 -3.136753
29 0.133220 0.311487
30 4.589650 4.592826
EOF