NAME: distribution-lognormal_generation_type-euclidean_city_size-30_range-1.2_mutation_type-random_sampling_generation-7_iteration-113146.0
TYPE: TSP
DIMENSION: 30
EDGE_WEIGHT_TYPE: EUC_2D
COMMENT: Generation 7, Iteration 113146.0
NODE_COORD_SECTION
1 1.289052 -0.399009
2 0.930142 -0.403025
3 2.048490 -0.914943
4 0.246110 2.370236
5 0.182416 -0.070654
6 0.050797 -1.155403
7 1.330806 0.689738
8 1.268803 -0.993388
9 -0.537913 -1.173848
10 -2.662781 11.906660
11 0.481847 2.847382
12 -0.959138 0.118266
13 1.056534 -1.046322
14 0.990724 -2.122687
15 0.575821 0.715907
16 0.452651 0.142862
17 1.864039 0.003418
18 0.834084 -0.845862
19 2.937149 -7.012259
20 -0.934666 -1.451105
21 0.944273 1.036710
22 0.282861 -0.012483
23 0.586303 -0.928383
24 0.693369 -1.311268
25 0.600004 1.209109
26 -1.023801 -0.623832
27 0.972037 -1.008513
28 1.197700 2.388529
29 1.184979 1.067836
30 -16.882695 -3.023668
EOF