NAME: distribution-lognormal_generation_type-euclidean_city_size-20_range-0.4_mutation_type-random_sampling_generation-80_iteration-70.0
TYPE: TSP
DIMENSION: 20
EDGE_WEIGHT_TYPE: EUC_2D
COMMENT: Generation 80, Iteration 70.0
NODE_COORD_SECTION
1 0.767095 -2.741911
2 0.579861 -0.569571
3 2.763447 1.503239
4 0.608752 0.115464
5 -1.612837 0.248095
6 -2.939504 1.791136
7 1.258289 -0.783651
8 0.157622 0.482453
9 -2.396758 2.021438
10 1.537591 0.206381
11 -0.910671 -1.084379
12 -1.737593 1.141447
13 2.463470 1.838966
14 1.253479 0.663525
15 -1.342748 -1.091169
16 -0.968596 -1.448749
17 0.943266 -0.593388
18 -0.895165 -2.734456
19 0.190637 1.124032
20 0.280363 -0.088901
EOF