NAME: distribution-uniform_generation_type-euclidean_city_size-20_range-30.0_mutation_type-random_sampling_generation-34_iteration-66.0
TYPE: TSP
DIMENSION: 20
EDGE_WEIGHT_TYPE: EUC_2D
COMMENT: Generation 34, Iteration 66.0
NODE_COORD_SECTION
1 1.446057 0.363053
2 -4.126472 -4.469933
3 6.654936 1.725957
4 -1.519663 -0.612131
5 5.083710 -1.669893
6 0.831182 3.329901
7 -3.666633 -6.065464
8 1.884043 2.706975
9 -2.881078 6.018560
10 -2.674899 -2.099411
11 -2.123537 -0.432473
12 -0.400131 4.390182
13 1.319879 -4.069956
14 2.990547 -1.059867
15 4.047687 -5.184461
16 2.517688 2.776202
17 -2.186555 2.836003
18 -6.667139 2.970187
19 -4.315505 -1.678829
20 3.785884 0.225398
EOF