NAME: distribution-lognormal_generation_type-euclidean_city_size-20_range-2.0_mutation_type-random_sampling_generation-4_iteration-250669.0
TYPE: TSP
DIMENSION: 20
EDGE_WEIGHT_TYPE: EUC_2D
COMMENT: Generation 4, Iteration 250669.0
NODE_COORD_SECTION
1 1.379973 2.152079
2 2.105368 0.834497
3 2.330422 1.273205
4 2.020563 0.738118
5 2.489411 2.550240
6 1.972038 0.619358
7 1.689251 0.929469
8 2.121356 0.979845
9 1.917896 0.413374
10 -36.677560 -0.093488
11 2.415968 2.043532
12 2.305760 -0.341703
13 1.796485 1.135566
14 2.426793 -15.159147
15 0.820899 -0.220320
16 1.729635 -1.441871
17 1.612320 0.410621
18 1.403969 0.313598
19 1.655359 -0.523205
20 2.484094 3.386232
EOF