NAME: distribution-uniform_generation_type-euclidean_city_size-20_range-10.0_mutation_type-random_sampling_generation-12_iteration-104.0
TYPE: TSP
DIMENSION: 20
EDGE_WEIGHT_TYPE: EUC_2D
COMMENT: Generation 12, Iteration 104.0
NODE_COORD_SECTION
1 0.864219 -2.441846
2 -0.022507 -0.026099
3 -1.225792 -1.332757
4 -1.068603 -1.039326
5 -2.392907 -1.415636
6 -0.905173 2.374781
7 -0.282192 0.296184
8 -0.815567 0.776150
9 3.604562 0.785427
10 -1.547412 -0.506075
11 0.427845 0.612445
12 0.546007 0.216369
13 -1.805532 0.832009
14 -1.331441 2.809177
15 -0.016460 -0.017645
16 -0.016460 -0.017645
17 2.847322 2.114788
18 1.248573 -2.576455
19 -0.022507 -0.026099
20 1.914026 -1.417747
EOF