NAME: distribution-lognormal_generation_type-euclidean_city_size-20_range-0.6_mutation_type-random_sampling_generation-69_iteration-98.0
TYPE: TSP
DIMENSION: 20
EDGE_WEIGHT_TYPE: EUC_2D
COMMENT: Generation 69, Iteration 98.0
NODE_COORD_SECTION
1 -4.149978 2.266483
2 -1.910487 -0.513096
3 1.189241 3.904554
4 -0.177278 -2.775371
5 0.345204 -2.269278
6 3.300216 -0.965974
7 6.580309 0.165521
8 2.905796 0.910141
9 0.271530 0.619009
10 0.075027 -1.798429
11 -2.123517 -2.840933
12 -2.015606 -0.213865
13 -0.745180 -0.504656
14 -0.686066 -1.344475
15 -0.234755 4.857452
16 0.090330 -1.486931
17 -1.147748 -0.019577
18 0.009557 -1.497589
19 -1.105503 2.126861
20 -0.471091 1.380155
EOF