NAME: distribution-lognormal_generation_type-euclidean_city_size-30_range-1.2_mutation_type-random_sampling_generation-13_iteration-3766500.0
TYPE: TSP
DIMENSION: 30
EDGE_WEIGHT_TYPE: EUC_2D
COMMENT: Generation 13, Iteration 3766500.0
NODE_COORD_SECTION
1 1.830694 -0.230009
2 -0.567662 -2.037740
3 1.256545 1.052970
4 1.944651 0.758420
5 -14.627934 1.870768
6 -3.508546 -3.068676
7 -1.453060 0.855416
8 2.187354 0.443943
9 -1.466216 1.515032
10 2.135859 0.563341
11 2.060694 -2.607821
12 0.116869 -2.303513
13 0.738499 -0.444647
14 0.187171 2.206083
15 0.217085 -2.393010
16 2.303666 -2.195001
17 1.507982 1.040143
18 -1.047735 0.517323
19 1.019311 0.156820
20 1.175473 1.191654
21 -2.830551 0.464003
22 -0.290709 -10.709031
23 3.583356 7.199360
24 -1.058129 0.126034
25 0.884596 1.887663
26 -2.839133 2.119646
27 3.715392 0.161523
28 1.402678 -0.821424
29 0.038069 2.504887
30 1.383730 0.175846
EOF