NAME: distribution-uniform_generation_type-euclidean_city_size-30_range-75.0_mutation_type-random_sampling_generation-26_iteration-227482.0
TYPE: TSP
DIMENSION: 30
EDGE_WEIGHT_TYPE: EUC_2D
COMMENT: Generation 26, Iteration 227482.0
NODE_COORD_SECTION
1 -8.209069 4.586699
2 -6.497678 -5.312341
3 3.491381 -6.799885
4 9.284948 2.520729
5 2.969693 1.375889
6 -7.668427 -4.113332
7 0.169445 -3.209612
8 -1.238960 2.931524
9 -7.438592 -6.283019
10 3.095564 5.218104
11 -3.455911 -9.150790
12 7.782556 -2.198415
13 -1.032689 6.286503
14 13.822279 1.748953
15 -3.242510 -0.672154
16 -7.746985 -6.722307
17 -0.699120 5.481207
18 -0.758642 8.930539
19 9.935172 -4.394659
20 -4.757065 2.819125
21 13.806596 -6.551206
22 4.354169 10.839260
23 -7.470548 10.368186
24 -5.789855 -7.912816
25 -5.350882 10.737715
26 6.372623 2.960301
27 -0.538071 -1.796384
28 -0.509700 -8.980629
29 -4.740040 -0.569675
30 2.060319 -2.137510
EOF