NAME: distribution-uniform_generation_type-euclidean_city_size-30_range-50.0_mutation_type-random_sampling_generation-72_iteration-437319.0
TYPE: TSP
DIMENSION: 30
EDGE_WEIGHT_TYPE: EUC_2D
COMMENT: Generation 72, Iteration 437319.0
NODE_COORD_SECTION
1 0.935744 -1.819157
2 -0.713730 -0.156244
3 -8.408449 -3.568320
4 3.628700 6.786559
5 2.842001 -3.443749
6 4.109663 1.645636
7 0.518867 2.097719
8 2.332717 6.286980
9 -5.879091 -5.447682
10 2.702564 2.595538
11 -7.360551 8.119959
12 1.828737 4.151522
13 -4.096876 -3.156711
14 7.189471 -0.054334
15 3.405947 1.352354
16 6.512930 1.984305
17 -4.878758 -8.044509
18 -3.564669 -1.176939
19 1.570731 2.297373
20 8.136976 -6.677052
21 2.718110 5.174065
22 2.088390 -7.667352
23 1.824418 -5.776028
24 0.408240 -0.090582
25 -8.979736 0.619029
26 1.335967 -5.179713
27 -6.680170 0.860117
28 2.663635 3.635983
29 -7.505440 6.857317
30 1.313660 -2.206087
EOF