NAME: distribution-uniform_generation_type-euclidean_city_size-30_range-100.0_mutation_type-random_sampling_generation-98_iteration-170231.0
TYPE: TSP
DIMENSION: 30
EDGE_WEIGHT_TYPE: EUC_2D
COMMENT: Generation 98, Iteration 170231.0
NODE_COORD_SECTION
1 -1.427964 7.442262
2 9.750659 -2.953740
3 -15.531003 11.155530
4 -2.281566 -15.912408
5 3.633897 8.361801
6 8.691144 7.077328
7 -1.276694 -4.144111
8 5.534821 5.001146
9 10.701735 -9.454324
10 6.714052 11.765301
11 20.422534 9.041903
12 -3.089716 0.682180
13 2.606513 -0.727510
14 6.732616 14.281349
15 -2.659074 -9.779247
16 3.926821 -15.738496
17 2.836598 5.986875
18 4.109816 -8.898655
19 13.002964 -13.018482
20 -11.394249 -7.682915
21 7.306566 1.897914
22 -5.614943 1.265519
23 -15.408272 7.927956
24 -8.884365 -7.894302
25 -7.643768 -2.212156
26 -5.054797 5.075393
27 1.070149 1.328551
28 -5.785168 0.449612
29 -15.110530 1.376200
30 -5.878778 -1.700474
EOF