NAME: distribution-uniform_generation_type-euclidean_city_size-30_range-65.0_mutation_type-random_sampling_generation-19_iteration-984902.0
TYPE: TSP
DIMENSION: 30
EDGE_WEIGHT_TYPE: EUC_2D
COMMENT: Generation 19, Iteration 984902.0
NODE_COORD_SECTION
1 3.268992 -2.816810
2 2.575254 4.227576
3 -7.852036 -5.238060
4 2.259717 -1.821920
5 6.280954 4.857108
6 -0.272716 7.058621
7 -3.628005 -0.791287
8 4.837813 -6.481018
9 -0.114149 -5.186536
10 -1.686723 2.964441
11 7.153607 -3.662518
12 4.087729 -1.002749
13 5.657403 -3.168862
14 -10.642020 7.103674
15 -1.077585 -6.561524
16 9.894005 0.442728
17 6.118014 9.304508
18 -2.251726 1.681191
19 5.894196 -5.500578
20 0.134641 5.914477
21 0.003690 -2.874659
22 -4.272382 2.197193
23 -7.354985 1.629108
24 4.329569 -6.501320
25 -7.800456 -7.764805
26 -5.122419 2.784836
27 4.480847 7.798402
28 -3.583269 -1.987913
29 -7.917715 -6.460103
30 -3.400244 9.856799
EOF