NAME: distribution-lognormal_generation_type-euclidean_city_size-20_range-0.4_mutation_type-random_sampling_generation-68_iteration-7266721.0
TYPE: TSP
DIMENSION: 20
EDGE_WEIGHT_TYPE: EUC_2D
COMMENT: Generation 68, Iteration 7266721.0
NODE_COORD_SECTION
1 -0.755164 0.927890
2 0.219909 -0.076051
3 1.683478 -0.054877
4 0.098389 0.044517
5 2.855476 -3.351026
6 -1.630293 0.417931
7 -0.822530 -0.618906
8 1.655647 4.106499
9 -0.135015 0.284506
10 0.303568 -0.027159
11 0.371130 0.367385
12 2.202148 -0.879722
13 0.130771 -1.483000
14 0.612211 1.475498
15 -0.823801 -0.398360
16 -0.905783 -0.219739
17 -1.331947 0.002797
18 -4.139458 -0.908046
19 -0.726787 -0.085694
20 1.138050 0.475557
EOF