NAME: distribution-uniform_generation_type-euclidean_city_size-30_range-30.0_mutation_type-random_sampling_generation-53_iteration-529762.0
TYPE: TSP
DIMENSION: 30
EDGE_WEIGHT_TYPE: EUC_2D
COMMENT: Generation 53, Iteration 529762.0
NODE_COORD_SECTION
1 2.345655 -0.967050
2 -0.225063 1.790814
3 0.566203 -0.404911
4 0.179391 -0.694277
5 0.084774 3.639223
6 -0.600375 -5.614191
7 -0.354334 2.560566
8 3.142008 -0.840259
9 2.421409 -0.046181
10 -3.090965 -5.880426
11 0.190267 -2.934561
12 -2.571656 -5.498784
13 3.533513 1.636729
14 -0.445717 6.335583
15 -1.186833 4.660268
16 4.293145 1.131019
17 0.681716 -1.991479
18 -0.430638 -1.340988
19 -7.840938 2.049671
20 0.033586 0.744781
21 1.236265 1.997151
22 -6.338638 1.410063
23 2.158683 -0.054908
24 3.823190 -1.792402
25 -4.603017 -3.108692
26 3.267154 1.201385
27 -0.331404 2.005222
28 -4.301743 2.925508
29 3.450852 -1.217757
30 0.913510 -1.701116
EOF