NAME: distribution-lognormal_generation_type-euclidean_city_size-20_range-0.6_mutation_type-random_sampling_generation-67_iteration-157258.0
TYPE: TSP
DIMENSION: 20
EDGE_WEIGHT_TYPE: EUC_2D
COMMENT: Generation 67, Iteration 157258.0
NODE_COORD_SECTION
1 -0.432057 0.502784
2 2.451436 -5.413688
3 -1.193784 1.632932
4 0.435042 -1.860739
5 1.696299 0.602184
6 -1.321275 1.139113
7 7.198269 1.901250
8 1.880119 -0.240057
9 -1.133260 -3.040945
10 -2.483200 -0.997649
11 -0.340791 1.972889
12 4.596097 0.376760
13 -0.956541 0.381055
14 -1.055769 -2.311264
15 -4.219450 2.408487
16 0.523096 2.328868
17 -0.817535 3.133323
18 -0.493054 0.513911
19 -1.709008 -1.914743
20 -2.624634 -1.114472
EOF