NAME: distribution-uniform_generation_type-euclidean_city_size-20_range-10.0_mutation_type-random_sampling_generation-56_iteration-73.0
TYPE: TSP
DIMENSION: 20
EDGE_WEIGHT_TYPE: EUC_2D
COMMENT: Generation 56, Iteration 73.0
NODE_COORD_SECTION
1 3.103488 1.810803
2 -0.963854 -1.191746
3 -1.532271 2.289194
4 0.924911 0.928308
5 0.020119 -0.366956
6 1.203877 0.174881
7 -2.008614 1.952509
8 -0.963854 -1.191746
9 -2.036482 -1.394115
10 0.227735 -0.469530
11 3.383108 0.444295
12 1.171162 0.281233
13 -0.923156 2.242827
14 0.020119 -0.366956
15 -2.828841 -0.618548
16 0.877445 -2.063998
17 0.363712 -1.679119
18 -0.233545 0.518404
19 -0.654583 1.422067
20 0.849525 -2.721808
EOF