NAME: distribution-lognormal_generation_type-euclidean_city_size-20_range-2.8_mutation_type-random_sampling_generation-3_iteration-479106.0
TYPE: TSP
DIMENSION: 20
EDGE_WEIGHT_TYPE: EUC_2D
COMMENT: Generation 3, Iteration 479106.0
NODE_COORD_SECTION
1 -1.364146 -1.349097
2 -4.292528 -13.835121
3 -1.887439 0.290126
4 -1.299856 0.320775
5 -2.126378 0.393490
6 -2.987312 1.552325
7 -1.625012 -0.433372
8 26.087543 -0.244380
9 -1.466966 -0.299612
10 -1.349934 0.186517
11 -1.664275 -0.070204
12 -1.337091 0.327261
13 2.975693 0.157374
14 -1.639791 -0.595577
15 -1.935523 -2.513150
16 -1.116106 0.351472
17 -1.304192 0.317608
18 1.092228 0.353642
19 0.641313 -0.882134
20 -3.400228 15.972055
EOF