NAME: distribution-lognormal_generation_type-euclidean_city_size-20_range-0.6_mutation_type-random_sampling_generation-44_iteration-99.0
TYPE: TSP
DIMENSION: 20
EDGE_WEIGHT_TYPE: EUC_2D
COMMENT: Generation 44, Iteration 99.0
NODE_COORD_SECTION
1 -1.836888 2.417139
2 1.217588 -0.522635
3 0.285757 2.329623
4 -3.582804 1.714021
5 -4.380646 -2.777825
6 0.571825 0.375838
7 1.217392 -2.786074
8 -0.180674 -1.330753
9 1.744618 -0.290311
10 0.031660 -2.255129
11 -0.289422 0.605602
12 -1.266946 -1.240092
13 -2.068013 5.429412
14 0.592504 -1.163474
15 0.683543 -1.417370
16 0.929106 1.095194
17 -0.160941 -0.893465
18 7.139056 1.711395
19 -0.442991 0.816372
20 -0.203726 -1.817465
EOF