NAME: distribution-uniform_generation_type-euclidean_city_size-30_range-65.0_mutation_type-random_sampling_generation-97_iteration-100928.0
TYPE: TSP
DIMENSION: 30
EDGE_WEIGHT_TYPE: EUC_2D
COMMENT: Generation 97, Iteration 100928.0
NODE_COORD_SECTION
1 0.034704 -0.039899
2 0.559015 11.388734
3 3.228465 5.844936
4 -9.378482 2.433569
5 6.258047 2.860934
6 -11.229142 2.147622
7 2.535434 3.900218
8 1.849334 -4.579997
9 1.691501 -5.842148
10 5.327108 -7.373001
11 -4.533682 -1.764021
12 3.478948 -4.353279
13 -6.822739 5.332633
14 6.202776 10.742707
15 -0.310852 4.468590
16 5.003823 -6.118547
17 7.849935 1.959374
18 3.042749 -1.759412
19 1.223113 -6.451790
20 -2.296828 -1.886055
21 7.374430 3.883756
22 -4.056901 -5.372005
23 -1.286667 -8.702972
24 4.019727 3.913576
25 -5.062142 -4.664746
26 -11.172582 5.761270
27 -1.247561 -0.365552
28 -3.508265 -3.534308
29 -5.744330 -1.357965
30 6.971061 -0.472226
EOF