NAME: distribution-uniform_generation_type-euclidean_city_size-30_range-85.0_mutation_type-random_sampling_generation-86_iteration-103386.0
TYPE: TSP
DIMENSION: 30
EDGE_WEIGHT_TYPE: EUC_2D
COMMENT: Generation 86, Iteration 103386.0
NODE_COORD_SECTION
1 -11.428809 5.683730
2 -10.367256 6.968020
3 5.603014 0.328736
4 -2.492223 -2.119339
5 -3.254953 -1.315715
6 0.517050 -6.211968
7 5.909159 8.888001
8 4.403941 5.731460
9 5.205305 4.167505
10 -11.182747 -11.568793
11 12.668430 10.250316
12 -0.216396 -1.105393
13 4.719600 -3.242627
14 0.245258 5.617531
15 -3.998545 7.296903
16 3.178703 2.295890
17 0.110736 -0.843372
18 -1.974638 2.262948
19 3.576590 -7.912488
20 -6.987830 2.230442
21 2.450544 -3.262243
22 2.075594 -0.529218
23 13.068470 -1.109099
24 -11.042028 -12.087836
25 2.296598 -16.695561
26 -10.687963 11.190332
27 9.136750 -5.032173
28 5.898110 -2.458651
29 -0.153450 -2.573669
30 -7.277015 5.156333
EOF