NAME: distribution-uniform_generation_type-euclidean_city_size-20_range-45.0_mutation_type-random_sampling_generation-15_iteration-66.0
TYPE: TSP
DIMENSION: 20
EDGE_WEIGHT_TYPE: EUC_2D
COMMENT: Generation 15, Iteration 66.0
NODE_COORD_SECTION
1 -2.641139 -0.116369
2 -1.238447 -4.886768
3 0.951132 -0.723168
4 2.766242 -5.589110
5 -3.126377 -2.638587
6 -4.875728 -2.437128
7 2.813260 -6.363268
8 10.159860 2.458343
9 -2.379989 5.703298
10 -3.238286 0.485656
11 -2.454562 3.566095
12 2.100132 -3.378642
13 -8.387327 4.810567
14 -7.147736 -0.555054
15 8.541326 2.603788
16 1.917214 1.800150
17 3.880838 8.135508
18 2.593317 0.551122
19 -0.797896 4.993688
20 0.564164 -8.420121
EOF