NAME: distribution-uniform_generation_type-euclidean_city_size-30_range-65.0_mutation_type-random_sampling_generation-40_iteration-132123.0
TYPE: TSP
DIMENSION: 30
EDGE_WEIGHT_TYPE: EUC_2D
COMMENT: Generation 40, Iteration 132123.0
NODE_COORD_SECTION
1 6.669719 -3.624491
2 -1.475807 -2.225449
3 0.805429 -0.472209
4 7.777133 -1.290187
5 -10.533783 3.573061
6 -5.258391 7.151604
7 -1.419959 -2.938568
8 -1.295156 6.500876
9 0.251494 -7.929927
10 -2.304071 -3.056026
11 11.572361 -2.100698
12 7.715747 -4.491627
13 2.483496 3.108315
14 -5.735282 -5.499431
15 -3.283195 5.969551
16 -5.864123 -11.236471
17 0.554536 4.465972
18 6.541274 7.889646
19 9.796104 1.394539
20 -1.515555 -6.364333
21 1.550810 -6.313659
22 -7.640390 -4.606463
23 -4.897757 6.410637
24 -4.731420 1.864046
25 0.201078 -5.007558
26 2.768708 9.583903
27 -1.474265 -0.940837
28 -5.445201 5.363232
29 -2.243701 1.399355
30 6.430168 3.423198
EOF