NAME: distribution-uniform_generation_type-euclidean_city_size-20_range-15.0_mutation_type-random_sampling_generation-26_iteration-99235.0
TYPE: TSP
DIMENSION: 20
EDGE_WEIGHT_TYPE: EUC_2D
COMMENT: Generation 26, Iteration 99235.0
NODE_COORD_SECTION
1 -0.933208 0.747746
2 0.177659 0.113592
3 -2.238811 -0.228660
4 -0.668684 1.892312
5 0.392940 -0.087161
6 0.883758 -2.161994
7 -0.490496 -0.714860
8 -0.930367 1.742598
9 -2.234911 0.861843
10 -1.088158 -0.193258
11 0.323789 1.047679
12 -1.958520 1.569301
13 2.336874 2.298599
14 2.487248 1.812511
15 -0.386785 -0.865687
16 1.847571 -2.460012
17 2.405768 -0.068514
18 -1.090616 -0.951686
19 -1.578780 -3.354834
20 2.743729 -0.999515
EOF