NAME: distribution-uniform_generation_type-euclidean_city_size-30_range-70.0_mutation_type-random_sampling_generation-52_iteration-578057.0
TYPE: TSP
DIMENSION: 30
EDGE_WEIGHT_TYPE: EUC_2D
COMMENT: Generation 52, Iteration 578057.0
NODE_COORD_SECTION
1 1.543365 -1.898775
2 -4.676224 -6.441745
3 8.806237 10.351906
4 4.885699 5.887916
5 -8.276917 -0.406313
6 -9.099128 -7.449005
7 -4.397166 -2.668133
8 4.912356 8.041504
9 -9.656023 7.824168
10 -0.446672 3.139741
11 11.286848 -5.745078
12 -9.150012 -1.624762
13 9.906143 6.752453
14 0.538224 -2.240013
15 10.764750 -2.416237
16 -7.910759 3.449583
17 -1.997733 -0.276528
18 -2.652760 9.423772
19 0.851109 -2.179332
20 -0.845031 -9.206467
21 0.323156 1.856634
22 -0.062917 7.270417
23 8.725626 -2.703653
24 -2.988616 -3.567997
25 5.494293 -11.621179
26 -6.052432 -10.446848
27 3.950852 -3.902350
28 6.945594 -3.686399
29 -2.113856 6.569499
30 -8.608005 7.913222
EOF