NAME: distribution-lognormal_generation_type-euclidean_city_size-20_range-2.0_mutation_type-random_sampling_generation-62_iteration-195728.0
TYPE: TSP
DIMENSION: 20
EDGE_WEIGHT_TYPE: EUC_2D
COMMENT: Generation 62, Iteration 195728.0
NODE_COORD_SECTION
1 -0.828474 -2.270545
2 -1.370588 -1.726511
3 -1.561419 -1.948630
4 -1.221472 -1.601600
5 -1.196143 -1.556165
6 -0.694530 -2.002635
7 -1.391424 -1.883564
8 -0.877193 -2.345447
9 -1.450801 -1.954366
10 -0.748585 -1.975867
11 -2.864067 7.138234
12 -1.441551 -1.850314
13 -1.277542 -2.725364
14 -5.276954 22.323558
15 -1.093085 -2.612941
16 -0.467606 -1.749785
17 -1.359560 -1.707409
18 27.767444 3.608417
19 -1.034052 -1.178496
20 -1.612397 -1.980570
EOF