NAME: distribution-uniform_generation_type-euclidean_city_size-30_range-60.0_mutation_type-random_sampling_generation-0_iteration-128668.0
TYPE: TSP
DIMENSION: 30
EDGE_WEIGHT_TYPE: EUC_2D
COMMENT: Generation 0, Iteration 128668.0
NODE_COORD_SECTION
1 3.076604 -4.488773
2 -4.943103 -7.558249
3 9.133201 -3.530658
4 -2.944894 0.749348
5 5.839369 -3.598616
6 1.233971 -5.273116
7 1.584580 -5.599253
8 -0.932511 3.309260
9 -3.940136 9.229422
10 -8.327573 3.601453
11 -4.263433 -3.778347
12 6.937505 7.652574
13 5.422811 7.854170
14 -3.055912 -3.307616
15 6.068339 -5.718095
16 -8.540490 -3.306469
17 -0.718654 10.692297
18 1.446450 -6.492485
19 12.740445 -0.742978
20 8.185763 5.481426
21 0.454165 -7.052030
22 2.643130 5.936501
23 2.447391 0.622001
24 -5.242321 4.733047
25 -1.736624 4.480896
26 -3.732185 -3.965216
27 -6.980565 3.003099
28 -3.446413 -3.134430
29 -8.312803 0.372932
30 -0.096107 -0.172092
EOF