NAME: distribution-lognormal_generation_type-euclidean_city_size-20_range-2.0_mutation_type-random_sampling_generation-57_iteration-821608.0
TYPE: TSP
DIMENSION: 20
EDGE_WEIGHT_TYPE: EUC_2D
COMMENT: Generation 57, Iteration 821608.0
NODE_COORD_SECTION
1 -0.863003 2.703596
2 -8.844382 -15.763762
3 -1.821265 -1.234315
4 -0.815951 1.267602
5 -0.592684 1.387857
6 0.890920 13.012790
7 -0.337688 -0.496747
8 -0.717724 2.231940
9 -5.163549 -7.751566
10 23.989440 -7.588920
11 -0.551511 1.218157
12 0.609073 0.754896
13 -0.177665 2.795855
14 -1.742650 -0.300520
15 -0.150764 1.146764
16 -0.671506 0.900999
17 -0.550896 1.237831
18 -0.619988 1.300842
19 -0.747871 1.076251
20 -1.120335 2.100451
EOF