NAME: distribution-uniform_generation_type-euclidean_city_size-30_range-90.0_mutation_type-random_sampling_generation-10_iteration-108336.0
TYPE: TSP
DIMENSION: 30
EDGE_WEIGHT_TYPE: EUC_2D
COMMENT: Generation 10, Iteration 108336.0
NODE_COORD_SECTION
1 -4.439123 1.050698
2 -3.442862 -4.537860
3 9.334436 -15.290533
4 4.001168 -6.746782
5 12.832780 -1.164288
6 4.117315 -14.864307
7 9.235578 6.257713
8 4.251366 6.454886
9 7.420451 -2.264772
10 -10.028448 3.238411
11 -14.159502 8.127249
12 3.302750 11.473078
13 7.515899 -0.555784
14 -4.851142 -6.469010
15 7.935959 7.434282
16 3.772910 4.742322
17 -0.652689 6.042287
18 2.112668 -0.851984
19 1.983101 -1.962425
20 -10.489078 -12.599616
21 -3.257733 5.094859
22 3.675488 -2.860968
23 -15.899549 -0.915131
24 -5.647906 2.018664
25 6.009294 14.282942
26 -7.044801 7.372994
27 10.972285 -9.118621
28 -7.393164 5.983758
29 2.123286 3.848701
30 -13.290736 -13.220764
EOF