NAME: distribution-uniform_generation_type-euclidean_city_size-20_range-10.0_mutation_type-random_sampling_generation-82_iteration-3385308.0
TYPE: TSP
DIMENSION: 20
EDGE_WEIGHT_TYPE: EUC_2D
COMMENT: Generation 82, Iteration 3385308.0
NODE_COORD_SECTION
1 -1.378300 -0.812727
2 -1.771561 -3.346735
3 -0.765019 0.446637
4 -2.691135 1.055403
5 0.760188 1.307889
6 1.004171 0.499438
7 -1.226320 0.725605
8 -0.488887 0.594794
9 -0.579795 -0.189889
10 -2.151399 -0.890110
11 0.237861 2.622705
12 2.991627 -1.457059
13 -0.801942 -0.387309
14 1.327826 -0.608748
15 2.481902 -3.153521
16 -0.613957 0.817150
17 0.513899 -0.238216
18 2.397397 1.591519
19 1.209496 1.987210
20 -0.456050 -0.564034
EOF