NAME: distribution-uniform_generation_type-euclidean_city_size-30_range-100.0_mutation_type-random_sampling_generation-12_iteration-235859.0
TYPE: TSP
DIMENSION: 30
EDGE_WEIGHT_TYPE: EUC_2D
COMMENT: Generation 12, Iteration 235859.0
NODE_COORD_SECTION
1 -11.860543 1.425807
2 8.273133 -4.607356
3 -7.735770 9.169910
4 -4.677536 -5.580773
5 12.194133 -2.011250
6 -4.714817 -8.517216
7 -13.049744 -3.133013
8 -4.137158 2.590860
9 1.373724 -5.981228
10 -0.743312 0.749657
11 -5.231618 -7.075155
12 -12.711621 -12.518136
13 -8.977607 15.355923
14 5.205470 -7.866037
15 -2.605668 -11.644816
16 2.460609 5.602074
17 8.899619 6.065191
18 9.915924 4.954854
19 18.701044 -1.627515
20 7.618541 -8.729237
21 -6.925720 -7.758217
22 11.339358 -5.296906
23 0.208511 -2.653596
24 0.646992 16.979976
25 14.077728 -1.627185
26 -2.819659 18.851532
27 -10.469783 1.926999
28 -5.981459 5.997047
29 -6.603348 -4.369276
30 8.330576 11.327085
EOF