NAME: distribution-uniform_generation_type-euclidean_city_size-30_range-90.0_mutation_type-random_sampling_generation-53_iteration-481497.0
TYPE: TSP
DIMENSION: 30
EDGE_WEIGHT_TYPE: EUC_2D
COMMENT: Generation 53, Iteration 481497.0
NODE_COORD_SECTION
1 2.822451 -14.046793
2 -2.277300 -11.696611
3 9.027099 -7.080458
4 -8.872525 -0.289126
5 2.061193 -3.839234
6 6.332036 -4.472218
7 -5.296291 10.908970
8 -2.729463 -15.046599
9 -6.016459 -3.836089
10 -8.182831 5.399574
11 -1.831920 -4.022379
12 3.004795 1.963477
13 -7.199783 -2.549194
14 5.693828 1.086012
15 -4.052953 -3.903293
16 -8.298330 -4.212324
17 5.928045 4.958775
18 -9.448137 7.125470
19 -11.754682 8.937319
20 4.265011 -4.203030
21 13.841971 0.348833
22 -4.936466 5.109452
23 4.162443 -7.591262
24 -4.090867 -4.956213
25 3.999508 13.974194
26 2.613206 14.409105
27 11.475658 1.899767
28 -10.428993 3.444283
29 20.030256 8.609691
30 0.159498 3.569900
EOF