NAME: distribution-uniform_generation_type-euclidean_city_size-30_range-50.0_mutation_type-random_sampling_generation-86_iteration-114755.0
TYPE: TSP
DIMENSION: 30
EDGE_WEIGHT_TYPE: EUC_2D
COMMENT: Generation 86, Iteration 114755.0
NODE_COORD_SECTION
1 2.099627 -4.116928
2 2.601270 -6.301592
3 2.348993 0.704430
4 4.243401 5.547224
5 2.475394 6.697968
6 1.927265 5.137671
7 0.358510 -3.396296
8 -1.003383 -2.148699
9 -4.025055 2.804389
10 5.054333 -2.567133
11 3.095796 -5.475547
12 1.863396 5.521877
13 -5.664852 -6.118476
14 5.437621 1.812455
15 -4.893614 1.491030
16 -4.560300 -1.509012
17 -8.445342 -0.352159
18 -2.610302 7.130442
19 -5.015219 -4.145938
20 -5.006044 2.232252
21 -1.328437 -1.728376
22 4.736773 -3.157089
23 -5.235651 3.024616
24 -3.005564 0.348063
25 6.598451 0.496007
26 8.447158 -0.658310
27 0.591644 6.238862
28 1.549775 -9.788173
29 5.392403 2.000579
30 -8.028049 0.275866
EOF