NAME: distribution-uniform_generation_type-euclidean_city_size-30_range-100.0_mutation_type-random_sampling_generation-58_iteration-212162.0
TYPE: TSP
DIMENSION: 30
EDGE_WEIGHT_TYPE: EUC_2D
COMMENT: Generation 58, Iteration 212162.0
NODE_COORD_SECTION
1 -5.308001 1.761025
2 10.473986 -4.276858
3 3.282482 -7.415277
4 5.762496 -0.151062
5 -8.206647 2.567776
6 6.439273 15.531684
7 -2.137539 11.034098
8 -12.806037 5.756968
9 -7.280462 -15.117697
10 5.973647 1.405012
11 -4.981656 -7.122572
12 -6.797707 -6.758896
13 12.448151 8.410744
14 15.184019 -8.804185
15 -8.056947 -17.085038
16 6.715700 14.660199
17 2.594962 -4.584931
18 6.767179 3.598405
19 -5.577656 -12.710513
20 -8.946029 10.145600
21 12.775500 2.480073
22 -6.395102 -2.101865
23 -7.987933 3.566501
24 -7.588318 11.461282
25 3.951494 -0.418665
26 5.884687 1.126290
27 -10.635454 4.129320
28 -16.121814 3.097644
29 9.672920 -9.756264
30 10.900805 -4.428798
EOF