NAME: distribution-lognormal_generation_type-euclidean_city_size-20_range-0.6_mutation_type-random_sampling_generation-68_iteration-63.0
TYPE: TSP
DIMENSION: 20
EDGE_WEIGHT_TYPE: EUC_2D
COMMENT: Generation 68, Iteration 63.0
NODE_COORD_SECTION
1 -0.042635 0.606313
2 1.270083 -1.289286
3 -0.413249 2.681497
4 2.176326 -0.351222
5 1.475153 2.653547
6 0.364331 -3.414482
7 1.300113 0.511812
8 -2.596660 0.082537
9 0.290036 0.311827
10 -3.131473 -2.138845
11 -1.272297 2.414697
12 -3.666546 2.603533
13 0.942218 0.002587
14 1.379837 0.316833
15 3.595103 -3.105824
16 0.320466 -0.876726
17 -1.999177 -1.147650
18 2.338028 0.976649
19 1.313652 1.940977
20 -3.643311 -2.778772
EOF