NAME: distribution-lognormal_generation_type-euclidean_city_size-30_range-1.2_mutation_type-random_sampling_generation-0_iteration-214908.0
TYPE: TSP
DIMENSION: 30
EDGE_WEIGHT_TYPE: EUC_2D
COMMENT: Generation 0, Iteration 214908.0
NODE_COORD_SECTION
1 1.190071 -1.330487
2 2.042293 -0.144014
3 0.960969 1.138528
4 1.443332 -0.431075
5 1.602092 -0.827011
6 -1.342416 5.259169
7 -0.309709 0.260306
8 0.319406 -0.128614
9 1.734505 -0.440047
10 3.572466 -1.436061
11 0.517291 1.042278
12 1.678064 -0.221726
13 -0.231750 1.720857
14 0.259163 0.060899
15 0.069233 0.540707
16 0.785592 -1.513079
17 1.353189 -0.075253
18 -0.637219 0.532590
19 4.930176 -0.526073
20 1.571697 -0.025695
21 1.130356 1.521826
22 -1.179370 -0.758267
23 -0.817582 2.577321
24 -10.508077 9.255644
25 0.166222 0.893163
26 0.640165 -1.036897
27 -0.555529 -0.064336
28 -10.983109 -10.869113
29 0.151337 -1.107396
30 0.447142 -3.868143
EOF