NAME: distribution-uniform_generation_type-euclidean_city_size-30_range-80.0_mutation_type-random_sampling_generation-54_iteration-128512.0
TYPE: TSP
DIMENSION: 30
EDGE_WEIGHT_TYPE: EUC_2D
COMMENT: Generation 54, Iteration 128512.0
NODE_COORD_SECTION
1 2.669615 -3.269473
2 9.123449 8.128562
3 -4.226811 1.361188
4 -6.149084 -16.872242
5 -3.066918 7.313253
6 -2.920028 -7.044129
7 3.582804 1.661461
8 0.407772 -2.423078
9 4.407613 13.262883
10 -11.151150 3.028860
11 6.842814 -9.356364
12 2.952656 2.656732
13 -5.016654 -8.319665
14 -3.913734 5.329925
15 11.690114 -4.776687
16 -2.947049 8.697508
17 -9.978842 -2.488575
18 9.067581 6.951101
19 3.519384 -6.474839
20 8.270532 -2.390867
21 -6.709987 -8.189214
22 -7.592433 5.532511
23 10.988906 -2.497231
24 -7.993978 -0.073346
25 0.215700 7.897402
26 -7.951539 -4.331110
27 -13.490267 8.161954
28 10.168573 -6.541894
29 1.021245 0.946793
30 8.179717 4.118582
EOF