NAME: distribution-lognormal_generation_type-euclidean_city_size-20_range-0.4_mutation_type-random_sampling_generation-38_iteration-100.0
TYPE: TSP
DIMENSION: 20
EDGE_WEIGHT_TYPE: EUC_2D
COMMENT: Generation 38, Iteration 100.0
NODE_COORD_SECTION
1 -1.159820 0.205510
2 -1.530657 -0.392533
3 1.528730 0.244952
4 0.347418 2.261426
5 -2.225439 0.203086
6 -1.203521 0.056943
7 1.628137 -1.043619
8 0.384244 2.079242
9 2.002466 -2.085258
10 -2.808671 0.021591
11 0.029915 -0.195893
12 0.915638 0.843472
13 -1.542078 -1.971006
14 -0.856081 -1.195256
15 0.478722 -0.033884
16 0.399901 -0.219797
17 1.535703 -0.041165
18 1.385586 -1.211814
19 0.262298 -0.569132
20 0.427507 3.043136
EOF