NAME: distribution-uniform_generation_type-euclidean_city_size-20_range-30.0_mutation_type-random_sampling_generation-66_iteration-61.0
TYPE: TSP
DIMENSION: 20
EDGE_WEIGHT_TYPE: EUC_2D
COMMENT: Generation 66, Iteration 61.0
NODE_COORD_SECTION
1 0.081335 5.276312
2 1.987043 -6.978679
3 -3.918563 6.322019
4 5.840866 0.082932
5 1.625467 0.809008
6 -0.701627 -2.856249
7 -8.759686 -1.734390
8 0.884842 0.431122
9 -3.998311 -2.684279
10 -2.597034 1.100651
11 4.400137 0.306912
12 0.925979 -1.465491
13 0.775271 4.741023
14 2.307731 2.745290
15 -2.179264 1.887312
16 -1.411655 -4.683935
17 2.599766 -0.608072
18 3.424713 2.290566
19 2.854640 -4.065284
20 -4.141651 -0.916768
EOF