NAME: distribution-uniform_generation_type-euclidean_city_size-30_range-85.0_mutation_type-random_sampling_generation-60_iteration-256639.0
TYPE: TSP
DIMENSION: 30
EDGE_WEIGHT_TYPE: EUC_2D
COMMENT: Generation 60, Iteration 256639.0
NODE_COORD_SECTION
1 0.836059 -5.177650
2 -2.132986 5.127363
3 -0.575158 -4.399672
4 -9.662434 8.452351
5 3.792609 -2.795230
6 -1.170302 0.993353
7 -5.980714 0.506686
8 -6.580154 -1.169483
9 -3.350200 -2.964346
10 -7.249300 5.599601
11 5.355688 2.018467
12 7.447449 12.902357
13 -4.698964 7.842331
14 5.319707 6.097673
15 15.345773 0.084847
16 -5.208318 -11.334549
17 -5.055263 -6.447226
18 -3.665023 -1.851747
19 1.239652 11.100996
20 12.299386 6.991826
21 -5.373210 -0.870349
22 -4.949638 -12.369787
23 -11.012005 7.415720
24 1.722119 -16.811335
25 -0.830568 -1.492934
26 -5.271437 -3.195621
27 9.088240 -4.283850
28 4.702686 4.121924
29 17.561060 -6.745498
30 -1.944753 2.653783
EOF