NAME: distribution-uniform_generation_type-euclidean_city_size-30_range-90.0_mutation_type-random_sampling_generation-37_iteration-103119.0
TYPE: TSP
DIMENSION: 30
EDGE_WEIGHT_TYPE: EUC_2D
COMMENT: Generation 37, Iteration 103119.0
NODE_COORD_SECTION
1 -0.618651 11.516440
2 4.706975 13.849699
3 -6.810444 -3.901630
4 -3.021539 -7.022061
5 13.618922 3.573190
6 -6.906236 -5.930660
7 10.131690 -4.488656
8 -7.241590 -1.644550
9 -0.292012 -13.260629
10 -2.109881 -10.054498
11 2.075916 2.840322
12 -9.867595 5.732583
13 -12.535674 -1.370719
14 10.763422 -0.982676
15 6.204947 -8.263627
16 -13.116210 -10.537345
17 -14.316700 6.506222
18 5.314796 -8.741413
19 8.899193 11.460792
20 10.208486 -0.080696
21 4.293477 -7.384282
22 -0.297888 7.790350
23 -5.865977 1.996804
24 -6.652997 9.086537
25 12.990970 -8.399400
26 1.441627 4.116435
27 3.809683 9.840232
28 -3.789968 -1.583233
29 3.384283 -0.263999
30 -4.401026 5.600469
EOF