NAME: distribution-uniform_generation_type-euclidean_city_size-20_range-20.0_mutation_type-random_sampling_generation-44_iteration-75.0
TYPE: TSP
DIMENSION: 20
EDGE_WEIGHT_TYPE: EUC_2D
COMMENT: Generation 44, Iteration 75.0
NODE_COORD_SECTION
1 -0.219232 -2.973382
2 -4.225485 5.339713
3 -4.711908 -2.542225
4 2.112321 -1.386994
5 0.975881 4.767889
6 4.152050 1.628016
7 -2.264123 1.050036
8 3.459824 4.329194
9 -1.500911 -1.187814
10 1.661979 -1.492887
11 -2.045672 -0.420134
12 1.707139 -1.079381
13 -2.438396 -2.560271
14 1.668596 -3.577791
15 0.000755 0.705410
16 -1.568053 0.637931
17 1.088945 -0.447580
18 -3.031179 1.103574
19 2.577052 -0.551274
20 2.600417 -1.342031
EOF