NAME: distribution-uniform_generation_type-euclidean_city_size-30_range-95.0_mutation_type-random_sampling_generation-0_iteration-125044.0
TYPE: TSP
DIMENSION: 30
EDGE_WEIGHT_TYPE: EUC_2D
COMMENT: Generation 0, Iteration 125044.0
NODE_COORD_SECTION
1 11.392225 -2.402495
2 1.331974 4.067216
3 -0.740072 -2.301626
4 9.155615 1.203342
5 -2.695595 11.798758
6 -0.047697 6.588887
7 4.965978 10.208516
8 8.183825 -3.180265
9 7.143479 -6.792388
10 -11.080017 -13.524314
11 -4.084668 -4.856047
12 7.371582 -14.933583
13 12.479996 -2.790351
14 -7.616649 -9.885082
15 -14.232670 12.762998
16 3.788983 -2.415556
17 -17.840390 -3.931278
18 -2.788608 0.066585
19 2.780609 -3.332925
20 -8.027374 10.533486
21 7.170658 0.724871
22 -7.293961 -7.097828
23 6.535678 15.612304
24 -1.693422 -3.039133
25 -10.132375 -8.185990
26 -2.937123 10.625050
27 2.812830 2.908922
28 -3.608379 3.271513
29 -6.809790 0.185135
30 16.515356 -1.888724
EOF