NAME: distribution-lognormal_generation_type-euclidean_city_size-20_range-0.8_mutation_type-random_sampling_generation-32_iteration-98.0
TYPE: TSP
DIMENSION: 20
EDGE_WEIGHT_TYPE: EUC_2D
COMMENT: Generation 32, Iteration 98.0
NODE_COORD_SECTION
1 -0.026827 2.475761
2 0.013480 -0.943181
3 1.361314 -1.342597
4 1.666867 -1.062090
5 1.484027 1.670308
6 2.235171 -0.994374
7 1.250323 0.719162
8 0.866021 -1.658095
9 2.742225 9.318132
10 -9.916504 -0.779875
11 -0.049186 0.703469
12 0.777399 -3.360593
13 -0.322834 -1.297782
14 1.131283 -0.257958
15 -0.027362 1.736455
16 0.129766 -0.764776
17 3.260092 -1.978848
18 1.119362 -2.438837
19 -9.305972 1.638902
20 1.611356 -1.383186
EOF