NAME: distribution-uniform_generation_type-euclidean_city_size-20_range-25.0_mutation_type-random_sampling_generation-51_iteration-94.0
TYPE: TSP
DIMENSION: 20
EDGE_WEIGHT_TYPE: EUC_2D
COMMENT: Generation 51, Iteration 94.0
NODE_COORD_SECTION
1 0.951809 2.551096
2 2.671455 2.896455
3 0.147668 0.094742
4 2.454570 -2.455850
5 1.228896 5.147053
6 4.775675 -0.225398
7 0.105941 -5.001528
8 2.104728 -2.683589
9 1.960817 1.295324
10 -4.132537 0.047805
11 -3.006254 -0.953028
12 0.710041 1.044679
13 -1.679872 -1.506559
14 -2.522231 0.101276
15 -0.033417 3.262240
16 -1.433540 -1.886284
17 3.333811 -2.425474
18 -2.572263 0.122070
19 -3.521945 2.403041
20 -1.543352 -1.828071
EOF