NAME: distribution-uniform_generation_type-euclidean_city_size-30_range-50.0_mutation_type-random_sampling_generation-19_iteration-123009.0
TYPE: TSP
DIMENSION: 30
EDGE_WEIGHT_TYPE: EUC_2D
COMMENT: Generation 19, Iteration 123009.0
NODE_COORD_SECTION
1 0.154291 -4.200825
2 -4.195498 -2.122855
3 3.192371 1.196176
4 -4.842981 -8.091164
5 -7.127343 3.755983
6 2.806277 0.201845
7 -9.223261 6.318855
8 2.991898 -1.488397
9 4.459295 2.472371
10 1.741308 -2.000563
11 -4.471328 -4.833096
12 5.933455 -4.946111
13 2.829483 -2.977929
14 7.387736 1.265270
15 4.329371 -3.216327
16 -0.738973 0.282036
17 7.488175 1.467132
18 3.243650 4.117967
19 -9.586045 0.563491
20 3.695949 8.060669
21 -6.335660 -1.715888
22 1.750403 -7.258907
23 0.173856 1.194543
24 -0.935855 1.961618
25 -1.721719 7.443466
26 0.665411 2.263106
27 -1.514990 -8.766449
28 -1.569269 -2.811950
29 -3.156122 5.432516
30 2.576115 6.433419
EOF