NAME: distribution-lognormal_generation_type-euclidean_city_size-20_range-0.4_mutation_type-random_sampling_generation-20_iteration-167061.0
TYPE: TSP
DIMENSION: 20
EDGE_WEIGHT_TYPE: EUC_2D
COMMENT: Generation 20, Iteration 167061.0
NODE_COORD_SECTION
1 -0.567478 0.508369
2 -0.614823 0.502776
3 -0.740941 -0.179302
4 1.007334 2.032434
5 0.786124 0.855529
6 0.273134 -0.323244
7 0.454241 1.234598
8 3.424070 -2.510513
9 -0.090711 3.215198
10 -0.577049 0.467177
11 0.161930 -1.696427
12 -0.774887 -2.181587
13 0.338593 1.441741
14 1.788107 0.130751
15 -0.616216 -0.213858
16 1.335179 -2.067449
17 -5.083432 -1.307354
18 -1.072191 0.299802
19 0.673806 0.737711
20 -0.104792 -0.946351
EOF