NAME: distribution-lognormal_generation_type-euclidean_city_size-20_range-2.2_mutation_type-random_sampling_generation-15_iteration-111222.0
TYPE: TSP
DIMENSION: 20
EDGE_WEIGHT_TYPE: EUC_2D
COMMENT: Generation 15, Iteration 111222.0
NODE_COORD_SECTION
1 -0.323094 1.840279
2 0.442090 2.427215
3 0.439908 2.441716
4 -0.319590 1.916664
5 0.368443 2.342489
6 2.930966 3.546877
7 -0.288567 3.375544
8 0.479599 3.364263
9 0.518931 3.237420
10 1.255019 3.039607
11 1.194091 3.104633
12 21.899067 -23.545543
13 0.455731 2.716303
14 0.435877 2.523568
15 -5.331107 -2.054544
16 -2.466222 1.334302
17 -25.788396 -18.601210
18 0.537494 3.805047
19 3.045850 0.081911
20 0.513910 3.103459
EOF