NAME: distribution-uniform_generation_type-euclidean_city_size-30_range-55.0_mutation_type-random_sampling_generation-69_iteration-360369.0
TYPE: TSP
DIMENSION: 30
EDGE_WEIGHT_TYPE: EUC_2D
COMMENT: Generation 69, Iteration 360369.0
NODE_COORD_SECTION
1 -3.795011 2.073242
2 -5.349223 1.672268
3 -7.491477 -1.001707
4 -3.821630 0.600251
5 -4.642477 -4.980352
6 4.669050 -4.866241
7 0.808424 -5.416536
8 8.983587 -1.309108
9 1.839520 -1.950337
10 2.523711 -3.433596
11 4.054996 0.084366
12 3.255563 9.501956
13 5.168193 9.369253
14 0.609244 9.143478
15 5.091699 -1.627658
16 2.801334 -1.633169
17 -0.560511 -5.178188
18 0.285957 4.505353
19 -11.525403 0.415799
20 -3.368887 6.806439
21 -5.040409 -6.563462
22 6.858913 1.370315
23 0.361897 -5.496447
24 1.194620 -1.752081
25 3.417415 -4.790132
26 -0.609650 0.677782
27 -0.640887 5.735749
28 -1.579100 2.138102
29 -8.343578 0.303725
30 4.844120 -4.399062
EOF