NAME: distribution-lognormal_generation_type-euclidean_city_size-30_range-1.2_mutation_type-random_sampling_generation-11_iteration-220912.0
TYPE: TSP
DIMENSION: 30
EDGE_WEIGHT_TYPE: EUC_2D
COMMENT: Generation 11, Iteration 220912.0
NODE_COORD_SECTION
1 -1.969241 -1.678943
2 -1.715179 -2.466208
3 0.062071 -1.748559
4 -1.623816 -0.884951
5 0.070067 -1.658142
6 -0.848917 -2.205540
7 -0.005557 -1.214743
8 -1.733123 -0.472632
9 0.887980 -0.552155
10 -1.983640 11.828205
11 -1.636884 -1.605703
12 0.054611 -1.031762
13 30.336842 1.520912
14 -1.354874 -2.038754
15 -2.696509 19.023805
16 -1.889266 -0.963610
17 -1.778065 -1.314314
18 -0.950118 2.210006
19 -1.171149 -0.582241
20 -1.396789 -0.476392
21 -2.015482 -1.106784
22 -0.913143 -1.613479
23 -1.335689 0.500679
24 0.122689 -1.864268
25 0.942266 -1.725709
26 -1.091797 -1.283675
27 -0.707111 -1.529315
28 -1.756901 -1.165554
29 -1.395433 -1.389836
30 -0.507847 -2.510337
EOF