NAME: distribution-uniform_generation_type-euclidean_city_size-20_range-35.0_mutation_type-random_sampling_generation-86_iteration-78.0
TYPE: TSP
DIMENSION: 20
EDGE_WEIGHT_TYPE: EUC_2D
COMMENT: Generation 86, Iteration 78.0
NODE_COORD_SECTION
1 2.622728 -4.040899
2 4.511627 2.804227
3 -3.940149 -2.698131
4 -1.171585 -1.939656
5 3.422179 -0.785418
6 -8.378960 1.971109
7 -1.433883 -0.887118
8 -2.061442 -1.104806
9 0.302732 2.346057
10 4.050161 -5.057067
11 1.033347 -2.453465
12 -1.750480 8.427081
13 2.825248 5.680670
14 3.608651 1.341489
15 -3.257105 -3.134555
16 -4.830851 -1.548309
17 1.154923 -1.547036
18 3.767920 -2.006200
19 1.810492 4.665183
20 -2.285552 -0.033156
EOF