NAME: distribution-uniform_generation_type-euclidean_city_size-20_range-15.0_mutation_type-random_sampling_generation-85_iteration-83.0
TYPE: TSP
DIMENSION: 20
EDGE_WEIGHT_TYPE: EUC_2D
COMMENT: Generation 85, Iteration 83.0
NODE_COORD_SECTION
1 -2.749151 -0.430300
2 3.084731 -1.121943
3 0.052868 1.299499
4 -3.004127 -0.018550
5 -1.769185 3.047348
6 -0.196355 0.326534
7 0.571027 1.928321
8 -0.427919 0.979081
9 0.184708 -2.649303
10 2.469858 1.752913
11 1.093612 0.859928
12 -0.112427 0.205706
13 0.103804 0.968160
14 -1.110678 -0.287961
15 3.174044 -0.748421
16 0.334761 -1.610849
17 -1.140387 -3.023070
18 -1.309524 -1.070309
19 0.386626 -1.627041
20 0.363713 1.220255
EOF