NAME: distribution-uniform_generation_type-euclidean_city_size-30_range-90.0_mutation_type-random_sampling_generation-89_iteration-487288.0
TYPE: TSP
DIMENSION: 30
EDGE_WEIGHT_TYPE: EUC_2D
COMMENT: Generation 89, Iteration 487288.0
NODE_COORD_SECTION
1 10.037514 -7.699203
2 -6.106772 0.070840
3 -6.987183 -3.091807
4 2.052876 5.741153
5 -4.164646 4.629738
6 12.317970 -8.221005
7 1.134326 -9.035919
8 -0.755248 -12.071252
9 -7.541739 -4.874999
10 12.059610 -4.183246
11 3.263107 2.738301
12 -4.179427 2.994326
13 0.719848 10.014055
14 -7.684424 2.834634
15 1.200229 11.044568
16 -13.223027 -0.858706
17 17.029240 3.649542
18 -3.818819 -18.403049
19 4.230700 7.580165
20 8.266562 11.724293
21 -6.733264 5.278429
22 2.438742 6.306841
23 -9.157737 -2.192319
24 1.309693 6.261539
25 -0.786691 5.020210
26 11.712094 -7.929724
27 6.710756 -3.429636
28 -7.293730 -8.686784
29 -8.133983 8.791452
30 -7.916576 -4.002434
EOF