NAME: distribution-uniform_generation_type-euclidean_city_size-20_range-80.0_mutation_type-random_sampling_generation-93_iteration-62.0
TYPE: TSP
DIMENSION: 20
EDGE_WEIGHT_TYPE: EUC_2D
COMMENT: Generation 93, Iteration 62.0
NODE_COORD_SECTION
1 6.443618 -7.601349
2 8.409576 1.590292
3 7.661078 -9.872554
4 -9.802509 3.935134
5 -12.258120 14.413602
6 -0.104529 -13.558231
7 1.937021 -2.932201
8 4.020426 3.860150
9 1.913008 0.225528
10 0.372897 -3.246437
11 -12.068420 -7.689890
12 -7.225303 10.039373
13 10.425179 -0.517432
14 -3.438154 -2.247307
15 3.615793 4.541810
16 -12.866496 -2.989486
17 1.357846 10.286633
18 9.581295 0.017757
19 -8.781624 -10.492725
20 10.807419 12.237334
EOF