NAME: distribution-uniform_generation_type-euclidean_city_size-20_range-20.0_mutation_type-random_sampling_generation-23_iteration-97.0
TYPE: TSP
DIMENSION: 20
EDGE_WEIGHT_TYPE: EUC_2D
COMMENT: Generation 23, Iteration 97.0
NODE_COORD_SECTION
1 -1.624452 -0.638282
2 -3.224584 1.002937
3 1.911937 -1.379538
4 6.040348 1.778391
5 -0.731556 -3.416601
6 -1.184273 5.001304
7 -0.666579 1.357746
8 -3.618590 0.944892
9 -1.110164 -3.311058
10 4.428469 -2.547453
11 1.844865 -0.976592
12 1.608236 0.476066
13 -2.346688 0.355387
14 -1.788399 -0.495644
15 1.552240 -4.944976
16 3.346831 2.956523
17 -2.441526 -0.104589
18 -2.896313 -1.537852
19 -1.070901 2.399557
20 1.971099 3.079781
EOF