NAME: distribution-lognormal_generation_type-euclidean_city_size-20_range-0.4_mutation_type-random_sampling_generation-4_iteration-6725719.0
TYPE: TSP
DIMENSION: 20
EDGE_WEIGHT_TYPE: EUC_2D
COMMENT: Generation 4, Iteration 6725719.0
NODE_COORD_SECTION
1 0.086459 0.179015
2 1.525460 -2.120776
3 -3.249903 -2.804059
4 0.502157 0.058401
5 -0.925313 0.695371
6 -0.219441 -1.063052
7 2.840951 -1.145653
8 0.262113 -0.656026
9 1.529768 -0.142044
10 3.315512 0.259978
11 -2.044054 -0.336927
12 -1.022776 0.303414
13 -0.931184 3.778214
14 0.542602 1.106956
15 -0.391721 0.733426
16 -0.786739 0.663890
17 -0.129644 1.320864
18 1.078385 0.809816
19 -0.422221 -2.322948
20 -1.560409 0.682141
EOF