NAME: distribution-uniform_generation_type-euclidean_city_size-30_range-35.0_mutation_type-random_sampling_generation-38_iteration-103761.0
TYPE: TSP
DIMENSION: 30
EDGE_WEIGHT_TYPE: EUC_2D
COMMENT: Generation 38, Iteration 103761.0
NODE_COORD_SECTION
1 0.341034 -2.032790
2 -6.269175 0.607351
3 2.113891 0.057325
4 -0.538811 -5.091441
5 -0.389518 -2.993894
6 -1.510733 4.513598
7 1.094141 -2.443881
8 4.084121 -0.446465
9 -0.187611 2.178160
10 2.309876 0.342782
11 -0.851605 -1.883577
12 7.617447 0.351741
13 -2.160868 3.587193
14 -0.103719 0.658200
15 -0.462227 -3.689200
16 0.357935 0.528487
17 -3.441040 1.733211
18 1.265150 6.148550
19 2.609179 -3.801553
20 1.188782 1.315446
21 -1.085833 -1.158594
22 -6.719720 1.895335
23 5.820998 0.755271
24 0.407526 -0.848518
25 0.949688 5.144599
26 -0.393637 3.650668
27 -2.699704 2.428929
28 -2.438774 -4.635576
29 -4.467401 -5.391458
30 3.560606 -1.479901
EOF