NAME: distribution-uniform_generation_type-euclidean_city_size-20_range-35.0_mutation_type-random_sampling_generation-31_iteration-98.0
TYPE: TSP
DIMENSION: 20
EDGE_WEIGHT_TYPE: EUC_2D
COMMENT: Generation 31, Iteration 98.0
NODE_COORD_SECTION
1 -4.003924 1.693495
2 0.196664 -0.028206
3 -1.777705 -5.888313
4 4.609067 4.070403
5 1.358927 -4.703020
6 -5.746721 3.015032
7 1.642299 -1.901644
8 -6.122994 -4.436092
9 4.643655 -2.584928
10 1.401280 1.295639
11 0.606043 -1.550418
12 3.721226 -1.359184
13 5.426810 4.917861
14 -2.871179 -4.072535
15 3.933425 -1.444640
16 -2.016469 3.460940
17 -3.739013 4.440238
18 2.700266 -0.011805
19 -3.739357 4.132286
20 -0.222302 0.954894
EOF