NAME: distribution-lognormal_generation_type-euclidean_city_size-20_range-0.6_mutation_type-random_sampling_generation-81_iteration-71.0
TYPE: TSP
DIMENSION: 20
EDGE_WEIGHT_TYPE: EUC_2D
COMMENT: Generation 81, Iteration 71.0
NODE_COORD_SECTION
1 -4.015060 4.393825
2 0.372199 2.227363
3 0.964565 -0.140001
4 0.258504 0.561525
5 -0.813687 0.727165
6 1.463623 -0.085522
7 -1.018318 1.904926
8 0.677823 2.845023
9 -1.800533 -0.841342
10 -0.458221 1.014848
11 2.818392 -2.756545
12 -0.122993 0.024081
13 -0.116955 -3.761910
14 1.947417 1.126130
15 0.523126 0.758261
16 -0.394202 -0.963972
17 0.549086 -2.324568
18 -0.494996 -0.512103
19 5.637091 -0.277256
20 -5.976862 -3.919927
EOF