NAME: distribution-lognormal_generation_type-euclidean_city_size-20_range-2.0_mutation_type-random_sampling_generation-47_iteration-297680.0
TYPE: TSP
DIMENSION: 20
EDGE_WEIGHT_TYPE: EUC_2D
COMMENT: Generation 47, Iteration 297680.0
NODE_COORD_SECTION
1 -2.162377 -1.677906
2 -1.430555 -1.449949
3 13.969262 1.471759
4 -1.406742 -2.070222
5 -2.222336 -1.676982
6 -0.670716 -0.974689
7 -1.801228 0.156260
8 -0.587639 -1.543503
9 -2.802349 -1.080839
10 -5.545188 20.543151
11 -3.495212 -3.403323
12 -1.920531 -1.325259
13 0.207514 -0.957282
14 -1.389268 -1.615382
15 19.249935 2.549057
16 -1.647517 -2.136717
17 -1.579499 -1.900925
18 -1.608135 -0.993278
19 -1.585580 -1.647016
20 -1.571840 -0.266954
EOF