NAME: distribution-uniform_generation_type-euclidean_city_size-20_range-20.0_mutation_type-random_sampling_generation-88_iteration-79.0
TYPE: TSP
DIMENSION: 20
EDGE_WEIGHT_TYPE: EUC_2D
COMMENT: Generation 88, Iteration 79.0
NODE_COORD_SECTION
1 3.700227 2.695293
2 -0.020606 0.082885
3 2.008682 -1.246020
4 -1.547229 3.128553
5 -0.587416 1.861549
6 -0.469842 5.392856
7 -1.024761 -1.083133
8 2.455036 0.287506
9 -3.037092 -0.198703
10 1.757645 -1.460815
11 5.886421 -0.310498
12 -0.467947 1.340533
13 2.506004 0.043975
14 -1.957439 -0.573213
15 -0.814394 0.112755
16 -4.039536 2.933915
17 -2.623272 -4.067140
18 -0.019267 0.191691
19 -3.790717 -3.861857
20 2.085503 -5.270130
EOF