NAME: distribution-lognormal_generation_type-euclidean_city_size-20_range-2.8_mutation_type-random_sampling_generation-2_iteration-622704.0
TYPE: TSP
DIMENSION: 20
EDGE_WEIGHT_TYPE: EUC_2D
COMMENT: Generation 2, Iteration 622704.0
NODE_COORD_SECTION
1 -1.310871 -1.159241
2 -1.169267 -1.322731
3 -2.060626 9.902302
4 -1.920839 -0.572483
5 -2.308637 -11.435875
6 -2.049905 0.071862
7 -2.492666 -1.198054
8 -2.240825 -1.030870
9 -2.134128 -1.314515
10 -1.323800 -1.193228
11 -1.199535 -1.378866
12 -3.323800 18.671925
13 -2.057308 -2.178515
14 -1.406699 -0.481870
15 34.355490 0.740163
16 -2.034103 -1.209283
17 -2.182138 -1.395946
18 0.672304 -1.026350
19 -2.348103 -1.881955
20 -1.464542 -0.606471
EOF