NAME: distribution-lognormal_generation_type-euclidean_city_size-20_range-0.6_mutation_type-random_sampling_generation-70_iteration-80.0
TYPE: TSP
DIMENSION: 20
EDGE_WEIGHT_TYPE: EUC_2D
COMMENT: Generation 70, Iteration 80.0
NODE_COORD_SECTION
1 -2.268081 -0.900385
2 -0.200758 1.011995
3 -1.072026 0.787971
4 1.696583 0.570744
5 0.873782 0.908033
6 1.111426 -0.206914
7 0.627697 -0.427407
8 -0.282698 -1.058859
9 -2.443823 2.448494
10 -1.433929 -1.916037
11 0.425400 -2.833648
12 -0.898741 1.522129
13 6.159547 -2.478273
14 2.654101 -3.076717
15 -1.052726 -0.823791
16 3.979600 5.723521
17 -1.008458 0.629567
18 -1.445338 1.926554
19 -4.020425 -1.499105
20 -1.401132 -0.307871
EOF