NAME: distribution-uniform_generation_type-euclidean_city_size-30_range-100.0_mutation_type-random_sampling_generation-25_iteration-255137.0
TYPE: TSP
DIMENSION: 30
EDGE_WEIGHT_TYPE: EUC_2D
COMMENT: Generation 25, Iteration 255137.0
NODE_COORD_SECTION
1 14.847287 -4.422819
2 4.014286 7.846783
3 -11.543791 10.616683
4 6.351786 -2.681534
5 23.181126 -9.270246
6 -6.684490 11.476927
7 -8.765570 -2.002755
8 8.471438 -6.305570
9 5.694009 4.627755
10 -5.520792 -14.930139
11 3.223437 -4.899021
12 -6.971279 11.547009
13 -9.842263 -7.306024
14 2.294574 11.303709
15 -5.320491 -13.177866
16 3.958901 -3.191101
17 10.567571 7.454858
18 -3.975244 13.044490
19 6.471916 11.821617
20 -6.243973 2.366560
21 1.446240 1.132582
22 -4.161105 -1.100470
23 6.311210 3.142857
24 -12.149692 -6.924207
25 -2.480417 -14.142527
26 13.119164 2.343197
27 -10.285681 1.397026
28 -6.079226 -3.119869
29 -6.439329 -13.888538
30 -3.489603 7.240635
EOF