NAME: distribution-lognormal_generation_type-euclidean_city_size-20_range-1.8_mutation_type-random_sampling_generation-47_iteration-109777.0
TYPE: TSP
DIMENSION: 20
EDGE_WEIGHT_TYPE: EUC_2D
COMMENT: Generation 47, Iteration 109777.0
NODE_COORD_SECTION
1 0.292865 0.854304
2 0.820288 1.602817
3 0.920168 0.831360
4 1.298237 0.585745
5 1.699174 1.362965
6 0.617262 0.818200
7 1.034689 0.410815
8 -1.378576 0.776430
9 0.565862 1.015262
10 2.420442 4.464645
11 4.791875 -16.512864
12 1.678638 2.657530
13 -20.586111 -2.537743
14 0.372106 -0.567384
15 1.187908 2.334235
16 1.404270 0.629680
17 -1.133600 -0.303455
18 1.188679 0.942219
19 1.332081 0.485844
20 1.473741 0.149396
EOF