NAME: distribution-uniform_generation_type-euclidean_city_size-30_range-80.0_mutation_type-random_sampling_generation-70_iteration-267602.0
TYPE: TSP
DIMENSION: 30
EDGE_WEIGHT_TYPE: EUC_2D
COMMENT: Generation 70, Iteration 267602.0
NODE_COORD_SECTION
1 -3.066767 9.445218
2 13.533047 -8.007976
3 -3.705909 -11.506005
4 -0.471507 -1.000672
5 10.503140 -5.166654
6 5.981976 13.771822
7 -1.640536 -8.845193
8 6.150927 2.336598
9 6.345198 0.996013
10 6.309453 -0.610227
11 -4.456037 3.612462
12 -8.356042 6.899843
13 -7.541171 -3.710205
14 -0.566653 -2.511386
15 -3.073040 -0.403403
16 -7.357657 0.812788
17 7.338865 -6.096322
18 10.451644 0.756132
19 -0.780582 1.071537
20 2.405496 4.135331
21 6.219203 1.396880
22 -3.306068 12.728401
23 -1.938915 1.631191
24 -12.633829 -1.413208
25 0.438894 0.827522
26 -8.262050 -16.154993
27 -2.259010 7.871211
28 -7.234111 9.561656
29 11.334628 -2.092398
30 -10.362590 -10.335962
EOF