NAME: distribution-lognormal_generation_type-euclidean_city_size-20_range-2.0_mutation_type-random_sampling_generation-61_iteration-171540.0
TYPE: TSP
DIMENSION: 20
EDGE_WEIGHT_TYPE: EUC_2D
COMMENT: Generation 61, Iteration 171540.0
NODE_COORD_SECTION
1 2.263564 0.421098
2 0.688708 0.247335
3 1.737376 -0.454923
4 2.087292 0.124851
5 1.783270 0.391892
6 2.326299 0.174740
7 1.694905 -0.787427
8 1.478977 0.224780
9 1.680829 -0.517518
10 1.049685 0.819205
11 0.826422 0.232805
12 2.160068 -0.921043
13 1.912739 -10.988955
14 1.446137 0.223323
15 2.405517 0.161395
16 1.432054 0.203566
17 3.099599 12.825176
18 2.267827 -1.805039
19 -33.895763 0.384728
20 1.554497 -0.959992
EOF