NAME: distribution-lognormal_generation_type-euclidean_city_size-30_range-1.2_mutation_type-random_sampling_generation-2_iteration-227067.0
TYPE: TSP
DIMENSION: 30
EDGE_WEIGHT_TYPE: EUC_2D
COMMENT: Generation 2, Iteration 227067.0
NODE_COORD_SECTION
1 3.647996 -4.941943
2 -0.329118 -0.468965
3 4.061559 13.084001
4 -3.204329 1.607271
5 1.322029 0.185665
6 2.133312 -7.855586
7 -3.245689 -0.503510
8 -0.845770 2.972515
9 1.352511 1.221962
10 -0.620491 0.374005
11 0.082273 0.100035
12 -12.253913 0.103609
13 1.384687 0.807658
14 -0.862485 -0.658229
15 1.375775 -0.097715
16 -3.430992 -1.825647
17 0.977411 -0.144253
18 0.555941 0.817264
19 -0.627477 0.178566
20 -0.790795 0.085406
21 0.591732 -0.462696
22 0.897723 0.212501
23 -0.531147 -0.986175
24 -0.931826 -0.532362
25 8.573813 -2.600985
26 0.700858 -0.467436
27 0.617870 0.060506
28 -1.148540 -0.700368
29 0.630041 0.073482
30 -0.082961 0.361422
EOF