NAME: distribution-uniform_generation_type-euclidean_city_size-20_range-45.0_mutation_type-random_sampling_generation-92_iteration-73.0
TYPE: TSP
DIMENSION: 20
EDGE_WEIGHT_TYPE: EUC_2D
COMMENT: Generation 92, Iteration 73.0
NODE_COORD_SECTION
1 -2.378957 -4.516112
2 7.998439 2.954713
3 3.302417 2.451858
4 -5.575780 -0.640721
5 -5.872931 4.111169
6 1.292234 -0.728000
7 3.395872 -5.029536
8 -0.961586 3.560847
9 5.125434 -4.278862
10 2.432964 7.261153
11 -9.479982 -7.999361
12 3.926947 -5.921586
13 -4.120515 -1.577737
14 -3.466983 3.618933
15 -2.168492 5.850493
16 0.852526 4.030690
17 3.280809 3.571124
18 6.200919 -5.466315
19 -4.820710 1.706468
20 1.037376 -2.959217
EOF