NAME: distribution-uniform_generation_type-euclidean_city_size-30_range-100.0_mutation_type-random_sampling_generation-93_iteration-293395.0
TYPE: TSP
DIMENSION: 30
EDGE_WEIGHT_TYPE: EUC_2D
COMMENT: Generation 93, Iteration 293395.0
NODE_COORD_SECTION
1 -7.761149 3.917338
2 -15.136843 -1.394321
3 -6.264716 -12.926190
4 15.271447 -7.335293
5 4.980156 -10.561926
6 4.719733 -9.602789
7 14.720632 -0.462807
8 -4.117488 10.978354
9 9.389219 -7.585973
10 2.897597 15.275201
11 -13.747706 0.554158
12 0.802734 9.624645
13 -19.694663 -4.085776
14 6.145427 8.013426
15 -9.959680 -0.746270
16 2.461440 1.730400
17 -1.464972 5.244395
18 -8.263842 6.410690
19 -5.593154 6.457917
20 9.321790 -5.992274
21 3.171187 -8.308014
22 3.208189 -1.935367
23 5.951246 3.754255
24 -4.499083 1.774787
25 -0.071595 -8.198320
26 9.266875 12.473415
27 5.076363 -9.191667
28 2.481204 2.222542
29 -8.818929 -11.995999
30 5.528581 11.891463
EOF