NAME: distribution-uniform_generation_type-euclidean_city_size-30_range-95.0_mutation_type-random_sampling_generation-72_iteration-177407.0
TYPE: TSP
DIMENSION: 30
EDGE_WEIGHT_TYPE: EUC_2D
COMMENT: Generation 72, Iteration 177407.0
NODE_COORD_SECTION
1 8.211407 -1.317796
2 -3.360540 -16.892593
3 1.435916 -13.511331
4 12.811647 -0.503380
5 12.364874 1.131092
6 -10.488002 -4.705162
7 -4.380082 -8.483541
8 -10.541284 -4.169426
9 -2.221030 1.532605
10 -1.335779 7.967980
11 3.175181 15.509726
12 -16.028437 -3.310735
13 9.666750 -0.966842
14 -0.774815 6.809820
15 -4.201695 6.809708
16 7.805825 4.776292
17 2.954423 -7.561479
18 -0.166354 1.172956
19 1.690606 6.079200
20 8.776025 -3.313754
21 -4.155518 3.421309
22 2.319131 4.093310
23 -3.896062 -1.878198
24 19.041970 -7.384822
25 -0.540857 3.842056
26 -9.552660 -3.932119
27 0.675865 1.190228
28 -6.442492 18.856264
29 -4.343897 -6.499929
30 -8.500114 1.238561
EOF