NAME: distribution-uniform_generation_type-euclidean_city_size-30_range-55.0_mutation_type-random_sampling_generation-6_iteration-126510.0
TYPE: TSP
DIMENSION: 30
EDGE_WEIGHT_TYPE: EUC_2D
COMMENT: Generation 6, Iteration 126510.0
NODE_COORD_SECTION
1 -1.087667 0.931166
2 7.054450 -7.347232
3 -3.678926 -2.393192
4 -9.479443 1.343478
5 -2.239243 -8.884875
6 5.801972 1.757622
7 -2.788632 2.473792
8 -0.489270 4.102576
9 -6.382852 3.475826
10 -2.585706 -4.759261
11 7.377747 -0.349923
12 2.361452 6.041647
13 -5.601163 -4.953250
14 -1.730003 1.879531
15 5.937147 -1.863402
16 5.429461 -0.762011
17 6.779535 6.299847
18 -2.850888 -2.573617
19 -2.207340 0.070121
20 -3.507385 -0.504156
21 1.957121 -6.438476
22 -5.039000 6.336876
23 -1.379409 1.965350
24 -6.888218 0.287931
25 2.889274 -2.603508
26 -0.987988 1.108532
27 3.885033 1.328739
28 4.588106 -4.477768
29 0.554485 -2.507472
30 4.307348 11.015106
EOF