NAME: distribution-uniform_generation_type-euclidean_city_size-20_range-30.0_mutation_type-random_sampling_generation-64_iteration-66.0
TYPE: TSP
DIMENSION: 20
EDGE_WEIGHT_TYPE: EUC_2D
COMMENT: Generation 64, Iteration 66.0
NODE_COORD_SECTION
1 -2.627484 2.897166
2 -0.249605 -3.216312
3 1.571147 1.798001
4 4.217138 -5.169720
5 5.962131 0.478471
6 -1.630869 -2.756690
7 -0.713214 -1.474865
8 -1.210699 -1.730904
9 3.815663 -1.154713
10 -2.167957 3.775511
11 -1.665801 -2.755009
12 -4.681832 -1.761746
13 4.226173 -1.456106
14 -5.363443 -5.998458
15 -1.937905 5.179754
16 -0.865477 3.646348
17 1.364639 5.444762
18 4.871068 2.171985
19 -6.452828 2.318033
20 3.539153 -0.235509
EOF