NAME: distribution-uniform_generation_type-euclidean_city_size-30_range-90.0_mutation_type-random_sampling_generation-48_iteration-125083.0
TYPE: TSP
DIMENSION: 30
EDGE_WEIGHT_TYPE: EUC_2D
COMMENT: Generation 48, Iteration 125083.0
NODE_COORD_SECTION
1 2.430096 -0.337564
2 -1.834095 -8.915153
3 -18.476974 7.673138
4 -0.303578 -0.430193
5 12.875898 -7.351998
6 -8.351062 -6.759287
7 1.200149 -1.025207
8 10.784111 6.549861
9 -9.505834 13.478314
10 8.621007 -8.376655
11 -11.452497 -17.241282
12 4.452012 -4.761327
13 0.115913 5.669395
14 5.436635 -9.476849
15 -0.518142 16.245814
16 0.176299 -0.271242
17 -4.340391 -2.255390
18 -4.553399 -5.714117
19 7.402945 15.728101
20 4.704349 5.860015
21 6.274324 4.910381
22 2.902593 7.471301
23 9.701095 -0.176815
24 11.761143 -5.922955
25 -9.258183 -0.875140
26 4.714537 -1.317887
27 -7.564889 -1.658177
28 -2.771425 -1.285979
29 -8.541474 -1.161842
30 -6.081164 1.728737
EOF