NAME: distribution-uniform_generation_type-euclidean_city_size-30_range-90.0_mutation_type-random_sampling_generation-79_iteration-222691.0
TYPE: TSP
DIMENSION: 30
EDGE_WEIGHT_TYPE: EUC_2D
COMMENT: Generation 79, Iteration 222691.0
NODE_COORD_SECTION
1 0.538232 -0.761810
2 8.775831 -4.895562
3 -10.901714 16.932860
4 -6.170903 -7.838255
5 -7.360431 0.595168
6 17.368087 -3.900982
7 9.262948 0.665394
8 0.412701 10.759646
9 2.928753 -6.561201
10 8.926032 -6.455719
11 8.476246 -3.593275
12 -7.316997 -3.449782
13 2.962985 1.739896
14 -11.359446 2.069022
15 15.315495 -3.082917
16 11.662001 13.816910
17 6.309452 15.953434
18 -2.310410 -0.088727
19 6.054128 -10.181694
20 -10.927161 -3.862005
21 -4.088858 -13.196121
22 -5.725608 1.424981
23 -12.362655 -13.172886
24 -2.759037 -4.749583
25 4.881581 8.741853
26 -2.510666 7.700793
27 -8.251129 4.268046
28 -8.018682 9.687364
29 -0.480941 -5.097688
30 -3.329834 -3.467156
EOF