NAME: distribution-lognormal_generation_type-euclidean_city_size-20_range-1.8_mutation_type-random_sampling_generation-63_iteration-114710.0
TYPE: TSP
DIMENSION: 20
EDGE_WEIGHT_TYPE: EUC_2D
COMMENT: Generation 63, Iteration 114710.0
NODE_COORD_SECTION
1 -1.217378 -1.482408
2 -0.829615 -1.021361
3 -1.263704 -1.669671
4 21.480506 4.369050
5 -0.465498 -1.893362
6 -1.123091 -1.713511
7 -1.413557 -1.622027
8 0.540541 -1.720983
9 -1.234692 -1.694901
10 0.193103 2.447266
11 -1.885834 -2.332687
12 -1.791007 -1.877391
13 2.114314 1.130279
14 -1.674862 -0.448976
15 -1.071742 -1.107406
16 -1.338816 -0.597009
17 -6.343529 19.954231
18 -0.326281 -1.926695
19 -1.095956 -5.052581
20 -1.252902 -1.739857
EOF