NAME: distribution-lognormal_generation_type-euclidean_city_size-20_range-2.2_mutation_type-random_sampling_generation-68_iteration-113657.0
TYPE: TSP
DIMENSION: 20
EDGE_WEIGHT_TYPE: EUC_2D
COMMENT: Generation 68, Iteration 113657.0
NODE_COORD_SECTION
1 -1.605916 -2.149726
2 -1.396878 -1.595783
3 -1.045896 -2.549543
4 -1.367202 -1.537328
5 -2.387961 -1.305813
6 -1.604394 -1.687474
7 -0.984333 -2.398168
8 -1.501410 -1.831068
9 -10.204028 25.357328
10 -0.017233 -2.141255
11 -1.443219 -1.520599
12 -1.725800 -2.161653
13 -0.762441 -0.389934
14 -1.070718 -2.545290
15 29.856987 7.196787
16 -0.996032 -2.425817
17 2.123423 0.642742
18 -1.645318 -3.493014
19 -1.646901 -1.849990
20 -0.574729 -1.614404
EOF