NAME: distribution-uniform_generation_type-euclidean_city_size-30_range-35.0_mutation_type-random_sampling_generation-24_iteration-248211.0
TYPE: TSP
DIMENSION: 30
EDGE_WEIGHT_TYPE: EUC_2D
COMMENT: Generation 24, Iteration 248211.0
NODE_COORD_SECTION
1 -0.774958 2.055147
2 -1.591134 0.781068
3 -1.195530 4.074224
4 2.245844 3.293852
5 -5.227385 -0.770844
6 -0.706722 0.968385
7 -3.338453 -3.323005
8 2.477189 -4.375682
9 2.450552 5.109457
10 -2.335545 -3.510594
11 1.025726 -3.348830
12 -2.085866 -2.226231
13 -3.177294 -5.110417
14 6.765621 -3.981509
15 -4.387725 3.451749
16 -0.320027 4.813152
17 3.388324 1.293912
18 -1.888292 2.728007
19 3.953613 -0.591097
20 3.589345 1.850380
21 2.694283 -1.669161
22 -0.502892 0.852189
23 1.375899 -3.369632
24 -1.534063 0.227426
25 3.500465 -0.510365
26 3.607980 1.889473
27 -6.480435 0.798694
28 -3.597261 0.118474
29 -0.641383 -3.946173
30 2.710124 2.427954
EOF