NAME: distribution-lognormal_generation_type-euclidean_city_size-20_range-2.8_mutation_type-random_sampling_generation-7_iteration-4824264.0
TYPE: TSP
DIMENSION: 20
EDGE_WEIGHT_TYPE: EUC_2D
COMMENT: Generation 7, Iteration 4824264.0
NODE_COORD_SECTION
1 4.017927 0.965246
2 3.983997 0.882694
3 3.993940 0.909439
4 3.998803 0.911117
5 4.035207 0.991441
6 3.969657 2.181513
7 3.878963 0.358069
8 3.519377 0.235583
9 -71.926405 -0.018958
10 3.597774 0.459356
11 3.300746 0.596054
12 3.806146 -21.605258
13 3.821861 0.211490
14 3.992083 0.904802
15 4.039600 1.001240
16 3.512191 0.214517
17 2.963965 0.841071
18 3.947184 0.809959
19 4.014368 0.967364
20 3.532615 8.183259
EOF