NAME: distribution-lognormal_generation_type-euclidean_city_size-20_range-1.8_mutation_type-random_sampling_generation-78_iteration-168853.0
TYPE: TSP
DIMENSION: 20
EDGE_WEIGHT_TYPE: EUC_2D
COMMENT: Generation 78, Iteration 168853.0
NODE_COORD_SECTION
1 -2.082251 -0.960924
2 -0.969974 0.567657
3 -0.496068 1.879223
4 -0.231157 1.202773
5 0.272890 0.122503
6 -0.714268 0.250865
7 -0.711546 2.367190
8 -6.515870 -16.872560
9 -2.306026 9.239277
10 20.293967 -4.077124
11 -1.254617 -0.017363
12 -0.918802 0.686363
13 -1.139280 1.229031
14 -1.700500 0.964052
15 -0.424007 -0.469557
16 -0.043857 0.525387
17 -0.477001 -0.088378
18 -0.466136 1.389149
19 0.077160 0.640532
20 -0.192655 1.421904
EOF