NAME: distribution-uniform_generation_type-euclidean_city_size-20_range-40.0_mutation_type-random_sampling_generation-16_iteration-100.0
TYPE: TSP
DIMENSION: 20
EDGE_WEIGHT_TYPE: EUC_2D
COMMENT: Generation 16, Iteration 100.0
NODE_COORD_SECTION
1 1.453584 -1.948087
2 -2.083329 -0.826570
3 0.779203 -6.518319
4 -1.853504 -6.214840
5 0.842007 1.493162
6 5.398096 -4.302812
7 -4.233757 1.437800
8 -6.934968 -0.399102
9 4.697291 3.582454
10 -5.234744 -1.998609
11 6.579525 -2.979232
12 2.431557 8.054337
13 0.473356 0.148578
14 -7.323086 -3.345480
15 -1.103520 5.038516
16 8.933909 -0.294393
17 -1.657262 8.385416
18 -2.766867 1.798909
19 1.290676 -4.569068
20 0.311832 3.457341
EOF