NAME: distribution-uniform_generation_type-euclidean_city_size-20_range-15.0_mutation_type-random_sampling_generation-44_iteration-73.0
TYPE: TSP
DIMENSION: 20
EDGE_WEIGHT_TYPE: EUC_2D
COMMENT: Generation 44, Iteration 73.0
NODE_COORD_SECTION
1 -1.101966 -0.782798
2 0.189286 -3.378310
3 -0.199393 -0.134860
4 -0.314850 -0.007837
5 -0.078314 1.132282
6 -0.362181 -0.895851
7 -3.403596 -0.330372
8 0.029384 -0.738316
9 0.287013 2.277899
10 -0.071406 1.442875
11 2.790501 2.500850
12 0.790843 -2.917261
13 -0.700601 -1.459509
14 3.125071 0.040598
15 -2.760650 1.313349
16 3.334287 -0.868569
17 -0.337084 -0.046504
18 0.166599 0.430605
19 -0.843828 0.731222
20 -0.539116 1.690507
EOF