NAME: distribution-uniform_generation_type-euclidean_city_size-30_range-90.0_mutation_type-random_sampling_generation-84_iteration-417708.0
TYPE: TSP
DIMENSION: 30
EDGE_WEIGHT_TYPE: EUC_2D
COMMENT: Generation 84, Iteration 417708.0
NODE_COORD_SECTION
1 -13.363109 11.457895
2 11.101203 10.744145
3 -0.261653 -13.980465
4 -13.778368 6.475511
5 4.530476 1.249515
6 0.682233 7.168203
7 -3.188521 8.240414
8 0.715619 3.940869
9 -7.580579 -9.822744
10 0.259213 2.576993
11 -12.429132 -5.028697
12 10.668465 5.386942
13 0.740596 -15.754321
14 -4.346300 -0.938432
15 3.221120 9.112401
16 -4.011329 -2.739075
17 11.199188 0.860650
18 -6.520391 7.410860
19 -2.201222 -11.307457
20 15.269629 -9.576389
21 5.856693 -2.531053
22 -8.470529 2.572684
23 5.635584 -2.887225
24 -11.161767 -3.302120
25 14.471651 8.054494
26 -0.530687 0.484614
27 -0.121434 -4.887684
28 3.343467 0.843886
29 2.685657 -9.498216
30 -2.415776 5.673799
EOF