NAME: distribution-uniform_generation_type-euclidean_city_size-30_range-70.0_mutation_type-random_sampling_generation-7_iteration-125022.0
TYPE: TSP
DIMENSION: 30
EDGE_WEIGHT_TYPE: EUC_2D
COMMENT: Generation 7, Iteration 125022.0
NODE_COORD_SECTION
1 4.480940 -2.656954
2 9.415649 1.735042
3 4.175241 0.593849
4 -2.574674 -10.348119
5 2.485781 -13.324676
6 2.134533 -8.461100
7 -0.065463 -0.569084
8 2.241354 -2.317638
9 -3.108092 2.526341
10 -4.820078 13.865058
11 -11.146832 -1.494827
12 -0.663234 -9.173310
13 -1.340343 6.151433
14 7.026807 3.284609
15 -0.560582 6.834388
16 7.996820 3.184549
17 12.107019 2.029244
18 -5.611160 4.536981
19 0.972148 -1.433905
20 -3.990469 10.555881
21 -5.693321 -4.120647
22 3.369456 6.523447
23 -8.912793 -4.120847
24 -7.993066 -3.170752
25 -5.168844 0.613499
26 11.193320 -4.930285
27 -10.403730 -0.277637
28 -4.342962 -2.211275
29 1.392388 4.112277
30 7.404189 2.064459
EOF