NAME: distribution-uniform_generation_type-euclidean_city_size-30_range-95.0_mutation_type-random_sampling_generation-57_iteration-169338.0
TYPE: TSP
DIMENSION: 30
EDGE_WEIGHT_TYPE: EUC_2D
COMMENT: Generation 57, Iteration 169338.0
NODE_COORD_SECTION
1 8.057633 -5.212243
2 3.707116 -5.863248
3 -7.450788 12.418772
4 -10.035427 13.611774
5 3.480324 3.260111
6 -8.387502 -6.919861
7 -12.834051 6.896492
8 4.406049 -11.114353
9 4.524590 -5.265207
10 5.196981 14.392724
11 -7.450135 6.094161
12 1.194294 -0.472920
13 9.079207 1.437293
14 -8.032242 -3.119638
15 -0.744711 3.937900
16 -7.697643 -6.898846
17 -6.905604 -2.807775
18 17.653985 -2.124057
19 -2.627696 6.971042
20 10.731156 2.742913
21 0.420617 -4.134049
22 -12.843690 -16.282762
23 2.549995 -5.842686
24 -4.941430 2.525879
25 10.900728 7.146373
26 8.813621 -2.748271
27 0.215933 4.941239
28 10.004716 -0.573705
29 -5.850147 -13.591295
30 -5.135876 6.594245
EOF