NAME: distribution-uniform_generation_type-euclidean_city_size-30_range-95.0_mutation_type-random_sampling_generation-92_iteration-238924.0
TYPE: TSP
DIMENSION: 30
EDGE_WEIGHT_TYPE: EUC_2D
COMMENT: Generation 92, Iteration 238924.0
NODE_COORD_SECTION
1 3.622580 -4.433657
2 2.292523 13.689904
3 -8.598660 7.976120
4 -9.018374 -1.977942
5 -2.552717 8.557048
6 -7.712580 -4.019325
7 -7.469787 6.232230
8 -3.119927 -1.258042
9 -12.642738 6.487723
10 5.743075 1.768504
11 -0.655398 -11.959357
12 2.490967 -11.134609
13 11.883368 4.560696
14 17.329498 1.017395
15 -0.879046 -12.858601
16 4.133419 -11.461548
17 -3.524231 -6.157404
18 4.000296 2.041986
19 -10.263996 0.888443
20 11.360253 13.184336
21 -3.702712 -3.448741
22 7.984397 -3.095914
23 -0.092553 -6.443072
24 11.257967 -2.415154
25 6.930207 7.206111
26 -2.132675 9.865687
27 3.030532 -3.508326
28 -0.964099 2.493381
29 -6.912928 -9.011212
30 -11.816661 7.213341
EOF