NAME: distribution-uniform_generation_type-euclidean_city_size-30_range-75.0_mutation_type-random_sampling_generation-16_iteration-121225.0
TYPE: TSP
DIMENSION: 30
EDGE_WEIGHT_TYPE: EUC_2D
COMMENT: Generation 16, Iteration 121225.0
NODE_COORD_SECTION
1 2.036004 -3.158228
2 -11.467739 -4.251510
3 2.881009 1.643382
4 -8.206313 12.593277
5 10.370783 0.558861
6 -7.520636 9.587168
7 -3.377251 -2.476054
8 -12.589937 0.887693
9 -9.482181 -3.206686
10 6.130164 -5.995810
11 1.435781 -0.466406
12 4.181081 -7.531246
13 1.976608 5.674246
14 11.124054 2.291219
15 -10.773641 -5.063779
16 5.410008 6.030503
17 10.766398 -2.306342
18 -6.439232 -1.433167
19 4.515375 5.427941
20 3.553599 8.998650
21 -1.806368 -3.913949
22 3.591235 -0.875911
23 4.900561 5.924224
24 -1.092309 -8.455000
25 2.759727 -7.663032
26 -7.710946 6.039477
27 1.714460 -4.603364
28 -0.447666 -8.004754
29 0.453056 -6.502183
30 3.114319 10.250779
EOF