NAME: distribution-lognormal_generation_type-euclidean_city_size-20_range-0.4_mutation_type-random_sampling_generation-37_iteration-100.0
TYPE: TSP
DIMENSION: 20
EDGE_WEIGHT_TYPE: EUC_2D
COMMENT: Generation 37, Iteration 100.0
NODE_COORD_SECTION
1 0.146813 -1.198688
2 -0.248302 2.198785
3 -0.101876 2.363073
4 1.406902 0.478676
5 -0.852796 2.584055
6 -3.092115 -1.373277
7 1.064107 -2.402554
8 0.584971 -2.419777
9 0.132583 0.503314
10 2.592607 -0.197922
11 0.181346 -0.224372
12 -4.250239 -1.064804
13 0.961546 -0.062495
14 0.832377 -1.257410
15 0.740699 -0.292101
16 -0.408635 -0.433359
17 0.301620 0.183669
18 1.056535 0.468390
19 -0.719954 1.326398
20 -0.328188 0.820401
EOF