NAME: distribution-uniform_generation_type-euclidean_city_size-30_range-45.0_mutation_type-random_sampling_generation-28_iteration-125782.0
TYPE: TSP
DIMENSION: 30
EDGE_WEIGHT_TYPE: EUC_2D
COMMENT: Generation 28, Iteration 125782.0
NODE_COORD_SECTION
1 2.279521 -6.010582
2 4.043988 -0.215245
3 -1.044471 -1.430765
4 -2.068535 -2.035555
5 6.283363 -3.412711
6 3.840645 0.814528
7 -0.987084 2.066508
8 -6.552106 3.188627
9 -1.297444 -1.135402
10 -1.249639 -3.576534
11 5.343883 -0.138894
12 4.079313 2.099137
13 1.270576 -2.746400
14 -1.162985 4.111950
15 -8.944644 1.462357
16 -2.081542 3.838311
17 0.271715 5.859164
18 -2.747632 2.516818
19 -2.500837 2.859020
20 0.168923 -2.969943
21 0.787517 4.134038
22 -0.767825 -5.912325
23 2.910731 1.377006
24 -1.174169 5.197425
25 -7.789876 -9.106814
26 2.138956 -1.783663
27 5.997366 -1.584977
28 5.565634 1.454649
29 -3.488868 -3.580082
30 -1.124471 4.660356
EOF