NAME: distribution-uniform_generation_type-euclidean_city_size-30_range-50.0_mutation_type-random_sampling_generation-29_iteration-117454.0
TYPE: TSP
DIMENSION: 30
EDGE_WEIGHT_TYPE: EUC_2D
COMMENT: Generation 29, Iteration 117454.0
NODE_COORD_SECTION
1 -5.214779 1.701729
2 -0.610569 2.308325
3 7.061450 -4.075479
4 8.173139 1.705791
5 -2.471311 -1.299455
6 -4.467256 6.852926
7 -1.777222 -7.950953
8 -7.160169 -2.575998
9 -6.171874 -0.855460
10 6.982544 2.205337
11 3.651822 9.371795
12 0.092869 4.006460
13 5.703495 5.059811
14 1.158342 -3.926425
15 1.951932 -0.099945
16 -0.779772 3.140493
17 -0.477256 -1.504126
18 0.953530 -2.435849
19 2.866095 -3.913161
20 0.910165 -1.437567
21 4.922952 -8.819054
22 -0.311581 -7.391381
23 -2.650224 1.849195
24 2.403268 0.455180
25 2.946798 -5.483909
26 -12.678744 -2.380799
27 -1.096569 7.352515
28 4.306719 2.369746
29 -7.750077 1.567507
30 -0.467718 4.202751
EOF