NAME: distribution-uniform_generation_type-euclidean_city_size-30_range-75.0_mutation_type-random_sampling_generation-45_iteration-318515.0
TYPE: TSP
DIMENSION: 30
EDGE_WEIGHT_TYPE: EUC_2D
COMMENT: Generation 45, Iteration 318515.0
NODE_COORD_SECTION
1 -4.009066 3.275435
2 6.258096 -3.967557
3 -15.300362 5.218479
4 -5.001761 2.026166
5 -8.910496 -3.423722
6 -7.379018 -4.444118
7 -0.424597 5.746918
8 2.736147 7.199942
9 3.808516 -0.837606
10 7.618975 -7.731650
11 8.108025 4.805895
12 1.041622 -12.456612
13 8.840204 13.804738
14 0.696253 5.437651
15 4.678548 1.006256
16 7.864983 -2.525764
17 1.222768 -2.412329
18 0.608610 5.442694
19 -9.950449 3.174231
20 -3.417660 -6.884207
21 -4.153752 -0.685273
22 -3.466803 5.269473
23 -6.511204 1.724474
24 -7.870399 1.558394
25 0.496793 -8.299942
26 4.557296 -10.356915
27 0.067027 -2.051379
28 8.967098 2.421500
29 -0.229073 -7.282565
30 9.053679 5.247394
EOF