NAME: distribution-lognormal_generation_type-euclidean_city_size-20_range-2.0_mutation_type-random_sampling_generation-40_iteration-486049.0
TYPE: TSP
DIMENSION: 20
EDGE_WEIGHT_TYPE: EUC_2D
COMMENT: Generation 40, Iteration 486049.0
NODE_COORD_SECTION
1 -1.860466 1.238000
2 0.454422 1.538475
3 -0.775742 2.432379
4 -1.626988 2.545543
5 6.863791 0.324542
6 -3.577012 -2.612352
7 -1.348348 1.989315
8 -1.795883 2.650194
9 -1.263345 1.882375
10 -2.532714 1.103418
11 -1.832657 3.045282
12 -1.783356 2.872154
13 -1.004086 2.806670
14 -1.004245 2.817042
15 -1.823818 5.169444
16 -1.835258 2.862172
17 30.594854 -8.712448
18 -1.297348 1.929116
19 -11.108967 -28.079744
20 -1.442834 2.198424
EOF