NAME: distribution-lognormal_generation_type-euclidean_city_size-20_range-1.0_mutation_type-random_sampling_generation-19_iteration-79.0
TYPE: TSP
DIMENSION: 20
EDGE_WEIGHT_TYPE: EUC_2D
COMMENT: Generation 19, Iteration 79.0
NODE_COORD_SECTION
1 -0.506100 -2.327880
2 -2.594069 10.757161
3 -1.058467 -0.908397
4 -1.525522 -1.494593
5 -1.345813 -3.212794
6 -0.201989 -0.727137
7 -0.602373 -2.457086
8 -2.311903 2.426757
9 1.892426 -1.643770
10 0.074471 0.249996
11 -0.218256 -1.160635
12 -0.911405 1.511176
13 -0.971371 -1.798401
14 1.059462 -0.940162
15 -1.744979 -2.524164
16 4.437177 -0.726250
17 14.638943 3.184729
18 0.004949 -1.945246
19 -2.189039 0.257058
20 -5.926141 3.479639
EOF