NAME: distribution-uniform_generation_type-euclidean_city_size-30_range-80.0_mutation_type-random_sampling_generation-63_iteration-112012.0
TYPE: TSP
DIMENSION: 30
EDGE_WEIGHT_TYPE: EUC_2D
COMMENT: Generation 63, Iteration 112012.0
NODE_COORD_SECTION
1 5.320247 -2.347362
2 -9.705325 -11.658016
3 -3.395608 12.316835
4 -5.537964 2.434161
5 -0.555720 3.190383
6 1.947660 -13.158486
7 -7.967658 10.048064
8 -3.041602 3.808078
9 2.498900 -11.904397
10 -1.243591 2.094444
11 -5.312068 10.261485
12 8.268679 -2.269948
13 -1.250056 6.214960
14 4.319630 5.873735
15 -1.353268 -0.701922
16 15.109165 7.950516
17 -11.858061 0.271368
18 9.879506 1.278288
19 -7.113092 -13.049102
20 -2.797991 -7.663139
21 6.800627 4.716367
22 -3.312402 6.935660
23 11.128615 -6.592543
24 -13.068437 -0.262174
25 13.056278 -0.348601
26 -4.319661 4.525729
27 -2.624569 -8.351210
28 -2.973279 -0.265939
29 5.467980 -4.706782
30 3.633065 1.359548
EOF