NAME: distribution-uniform_generation_type-euclidean_city_size-30_range-60.0_mutation_type-random_sampling_generation-53_iteration-100573.0
TYPE: TSP
DIMENSION: 30
EDGE_WEIGHT_TYPE: EUC_2D
COMMENT: Generation 53, Iteration 100573.0
NODE_COORD_SECTION
1 7.122052 -3.629317
2 2.429281 -5.044028
3 8.898873 2.309711
4 -2.523959 -7.334944
5 8.233642 -2.731570
6 1.670964 -8.411826
7 -6.599650 4.385992
8 2.033927 12.047985
9 -3.446458 7.880414
10 -0.281802 3.158595
11 0.436175 -4.407425
12 5.679717 3.093746
13 2.224748 -2.338677
14 3.269061 2.321058
15 0.429648 1.029090
16 -1.581979 2.887244
17 -10.184256 3.062671
18 -2.292595 -8.285776
19 0.448353 -8.142135
20 -4.033686 -0.038087
21 -4.352079 0.390416
22 5.471187 6.697845
23 11.688528 4.576131
24 -6.281041 0.934435
25 -11.255355 1.604557
26 -5.024714 -0.133142
27 0.831841 -8.952394
28 -4.003492 -2.408750
29 0.751891 2.278827
30 0.241175 3.199353
EOF