NAME: distribution-uniform_generation_type-euclidean_city_size-30_range-65.0_mutation_type-random_sampling_generation-69_iteration-221395.0
TYPE: TSP
DIMENSION: 30
EDGE_WEIGHT_TYPE: EUC_2D
COMMENT: Generation 69, Iteration 221395.0
NODE_COORD_SECTION
1 2.613951 -0.275231
2 -10.810694 -0.100798
3 -1.657351 -4.746824
4 -5.602397 8.110275
5 7.749343 -2.356857
6 -0.513568 -10.209305
7 -8.050451 -2.175239
8 3.829887 3.581318
9 3.019217 3.752838
10 -9.013130 -7.495111
11 -0.234157 10.249136
12 5.086303 -6.899336
13 -0.193423 -1.831011
14 9.627761 -1.740449
15 -3.463695 13.246801
16 1.529595 4.697160
17 2.533735 -5.160538
18 0.605571 -1.579558
19 7.225963 -5.493626
20 0.159531 -1.346540
21 -3.366914 -0.497409
22 3.192048 3.825344
23 -2.103755 -3.194062
24 10.195397 0.975495
25 -0.305491 1.855586
26 -9.129438 -3.583118
27 4.955014 0.635036
28 0.748455 6.883014
29 -1.502233 3.889573
30 -7.125074 -3.016562
EOF