NAME: distribution-lognormal_generation_type-euclidean_city_size-20_range-0.4_mutation_type-random_sampling_generation-47_iteration-76.0
TYPE: TSP
DIMENSION: 20
EDGE_WEIGHT_TYPE: EUC_2D
COMMENT: Generation 47, Iteration 76.0
NODE_COORD_SECTION
1 -2.249180 -2.164772
2 0.464207 -2.428258
3 -1.271198 0.037694
4 -1.026162 -0.308209
5 -1.439334 -0.758913
6 -1.339867 2.604023
7 1.308035 1.505781
8 0.626503 -0.231468
9 -0.065288 1.098138
10 -1.577730 1.016284
11 1.259067 1.505291
12 1.446894 1.426459
13 2.502002 -1.728097
14 -0.478397 1.653118
15 -2.581812 -0.976393
16 0.566539 -0.481455
17 2.168845 -1.210813
18 0.437027 -0.297281
19 0.696764 0.311738
20 0.553085 -0.572866
EOF