NAME: distribution-uniform_generation_type-euclidean_city_size-30_range-50.0_mutation_type-random_sampling_generation-87_iteration-109731.0
TYPE: TSP
DIMENSION: 30
EDGE_WEIGHT_TYPE: EUC_2D
COMMENT: Generation 87, Iteration 109731.0
NODE_COORD_SECTION
1 -0.890463 3.746313
2 1.626348 -1.418364
3 -7.829810 -0.613597
4 -3.610210 -1.816305
5 -8.239588 -0.505923
6 3.088935 -3.138413
7 4.022833 6.364470
8 4.067302 -5.201772
9 8.877737 -0.686866
10 -3.688680 -1.931120
11 0.604613 7.707839
12 -0.460564 -1.214673
13 3.604580 3.459033
14 -1.722423 -0.164265
15 2.460014 -9.472720
16 -3.541753 3.183262
17 0.481886 2.317931
18 1.783572 -4.082639
19 -7.539480 -1.483705
20 6.076380 8.194506
21 5.766539 -8.601810
22 -1.146784 -0.235857
23 1.437249 5.258036
24 6.411871 5.016529
25 2.456633 -0.470635
26 -11.853561 3.518196
27 2.174137 -4.041116
28 0.170254 3.197379
29 -2.100514 -0.730507
30 -2.487053 -6.153207
EOF