NAME: distribution-lognormal_generation_type-euclidean_city_size-20_range-2.0_mutation_type-random_sampling_generation-84_iteration-929183.0
TYPE: TSP
DIMENSION: 20
EDGE_WEIGHT_TYPE: EUC_2D
COMMENT: Generation 84, Iteration 929183.0
NODE_COORD_SECTION
1 4.885630 0.750441
2 5.300677 -23.588696
3 4.725469 1.182493
4 4.972530 1.133888
5 4.984565 1.189601
6 4.795662 1.511846
7 4.979266 1.161214
8 4.982679 1.181888
9 5.020891 1.348059
10 5.008098 1.301175
11 4.881004 1.870417
12 -93.955387 -0.091585
13 4.972000 1.132326
14 4.992797 1.225676
15 4.997231 1.247599
16 4.933804 2.103261
17 5.004647 1.281145
18 4.962831 1.094408
19 4.554719 1.698110
20 5.000888 1.266734
EOF