NAME: distribution-uniform_generation_type-euclidean_city_size-30_range-95.0_mutation_type-random_sampling_generation-83_iteration-258855.0
TYPE: TSP
DIMENSION: 30
EDGE_WEIGHT_TYPE: EUC_2D
COMMENT: Generation 83, Iteration 258855.0
NODE_COORD_SECTION
1 6.851090 -11.952020
2 -1.251590 1.569550
3 6.625807 7.256134
4 14.255947 2.553648
5 3.736121 16.971252
6 12.969595 1.082176
7 -1.640542 -7.591637
8 3.000689 8.259857
9 -12.659351 -6.657841
10 11.327722 -1.446372
11 -7.702519 2.186174
12 -3.758523 -14.706331
13 -3.801309 3.023586
14 -6.923817 9.528386
15 -15.035974 4.400189
16 -1.914893 -5.296446
17 0.406741 -1.060884
18 9.160307 -10.674371
19 -15.661771 3.395009
20 -5.922379 -0.082945
21 1.216515 -3.516795
22 6.477381 5.094056
23 7.083677 12.990615
24 0.302861 -9.198025
25 -7.654727 -12.188273
26 7.262099 -5.884035
27 -8.361681 2.848969
28 -0.664825 0.407730
29 9.590131 -1.074474
30 -7.312782 9.763118
EOF