NAME: distribution-uniform_generation_type-euclidean_city_size-30_range-40.0_mutation_type-random_sampling_generation-23_iteration-146073.0
TYPE: TSP
DIMENSION: 30
EDGE_WEIGHT_TYPE: EUC_2D
COMMENT: Generation 23, Iteration 146073.0
NODE_COORD_SECTION
1 1.570030 -3.933847
2 2.059819 -0.326726
3 -4.083138 -2.647866
4 3.393810 -3.251127
5 1.257963 -6.487267
6 -5.179308 -0.058141
7 0.371157 -1.992340
8 -1.189056 -1.314128
9 0.941028 7.631176
10 4.241526 -4.947053
11 2.559611 1.840095
12 9.516620 1.359056
13 -4.509941 -5.993383
14 -5.467504 7.374284
15 0.803622 -1.303262
16 4.594078 2.858745
17 1.414799 -1.083257
18 3.580501 3.028659
19 -6.011667 0.604921
20 0.860053 4.303368
21 -4.236490 -6.808487
22 6.387453 -0.126556
23 -3.023798 3.073576
24 0.560751 1.861460
25 3.094986 0.211683
26 -7.045300 1.623306
27 -3.851676 -2.956462
28 -2.001783 6.472957
29 2.191529 -0.516609
30 -2.799676 1.503223
EOF