NAME: distribution-uniform_generation_type-euclidean_city_size-30_range-50.0_mutation_type-random_sampling_generation-64_iteration-120834.0
TYPE: TSP
DIMENSION: 30
EDGE_WEIGHT_TYPE: EUC_2D
COMMENT: Generation 64, Iteration 120834.0
NODE_COORD_SECTION
1 4.172869 -0.471017
2 5.470274 -4.737386
3 -2.232903 4.555853
4 -0.704705 3.607252
5 -4.231396 -6.085812
6 2.116282 -3.681148
7 -1.880543 2.684903
8 3.768464 -0.845007
9 -5.147166 -4.894097
10 0.567046 -0.366925
11 -5.131606 11.292399
12 -7.214709 2.794838
13 -0.302486 -2.744033
14 3.721041 -4.188629
15 9.789769 -0.908140
16 5.842532 5.934072
17 -1.021856 2.758770
18 -7.059733 -3.194991
19 2.791784 -1.982221
20 8.568110 1.398191
21 -0.613361 8.063722
22 4.117402 -1.275710
23 -7.166880 1.122690
24 -2.382646 -6.253956
25 -4.551015 0.209427
26 0.159523 3.576224
27 0.322336 -5.941702
28 6.180217 6.925084
29 -7.820600 -1.131592
30 -0.126043 -6.221058
EOF