NAME: distribution-uniform_generation_type-euclidean_city_size-20_range-55.0_mutation_type-random_sampling_generation-78_iteration-92.0
TYPE: TSP
DIMENSION: 20
EDGE_WEIGHT_TYPE: EUC_2D
COMMENT: Generation 78, Iteration 92.0
NODE_COORD_SECTION
1 -9.418902 -1.573289
2 5.298888 4.494580
3 0.962790 4.602635
4 -10.508093 -0.040933
5 -9.455945 5.481617
6 -1.226718 3.791830
7 0.929597 -4.242343
8 7.793689 2.859728
9 -8.384873 -11.299389
10 -1.637230 7.585002
11 -3.536923 5.643901
12 7.866583 -2.308272
13 2.396919 4.258277
14 2.193156 -2.824185
15 2.990960 -5.335959
16 -0.417535 2.062798
17 6.945393 4.438169
18 1.750369 -7.230838
19 7.425344 -8.017847
20 -1.967469 -2.345484
EOF