NAME: distribution-uniform_generation_type-euclidean_city_size-30_range-40.0_mutation_type-random_sampling_generation-10_iteration-105213.0
TYPE: TSP
DIMENSION: 30
EDGE_WEIGHT_TYPE: EUC_2D
COMMENT: Generation 10, Iteration 105213.0
NODE_COORD_SECTION
1 -4.334474 8.004017
2 -1.275679 -1.582420
3 0.013093 -3.408380
4 -5.370863 -4.368824
5 -0.363577 1.768118
6 2.295885 -0.031254
7 1.450677 6.097519
8 -2.189087 5.252308
9 -7.633433 -0.112310
10 -1.607011 0.046226
11 3.208628 2.402445
12 5.315061 -2.471013
13 0.488064 2.820315
14 -6.799747 -0.945859
15 2.446413 -4.305854
16 1.281491 -2.237254
17 2.489331 2.991699
18 -1.365499 4.509027
19 1.106638 -3.232717
20 1.079126 0.908239
21 8.950654 4.065838
22 1.129834 0.782296
23 -5.677808 -4.290477
24 -0.278993 -2.489982
25 2.474111 -7.548154
26 -6.102207 1.187111
27 2.949703 -3.752676
28 -1.365129 -3.794602
29 7.877997 -0.698454
30 -0.193200 4.435069
EOF