NAME: distribution-uniform_generation_type-euclidean_city_size-20_range-20.0_mutation_type-random_sampling_generation-73_iteration-81.0
TYPE: TSP
DIMENSION: 20
EDGE_WEIGHT_TYPE: EUC_2D
COMMENT: Generation 73, Iteration 81.0
NODE_COORD_SECTION
1 2.608886 3.355589
2 4.527633 1.114606
3 0.369925 -3.736990
4 -3.172852 2.600346
5 -2.754135 -5.334520
6 1.988295 -0.324373
7 -0.215851 0.624412
8 -4.998563 0.644673
9 -3.012257 3.370240
10 -0.931881 -2.425293
11 2.537103 -1.416445
12 1.336316 -0.190923
13 -3.110113 -1.529947
14 -1.628638 4.262933
15 -2.839833 -0.443112
16 2.293465 0.559880
17 1.616519 -0.283627
18 1.418485 -2.615571
19 3.169530 -0.302443
20 0.797965 2.070565
EOF