NAME: distribution-lognormal_generation_type-euclidean_city_size-20_range-0.8_mutation_type-random_sampling_generation-76_iteration-103.0
TYPE: TSP
DIMENSION: 20
EDGE_WEIGHT_TYPE: EUC_2D
COMMENT: Generation 76, Iteration 103.0
NODE_COORD_SECTION
1 1.063524 2.077307
2 -1.452816 -2.084597
3 -1.678734 0.376927
4 -2.898007 -9.036770
5 0.829421 -2.431241
6 -2.749686 1.911661
7 3.425622 -0.775593
8 0.927404 2.363481
9 1.290029 0.793819
10 -0.372014 1.614568
11 9.359825 -0.706721
12 -0.609292 -0.006553
13 1.053594 0.853100
14 -1.948534 2.722627
15 -0.555365 0.483866
16 -0.644371 0.080956
17 -0.230130 -0.694027
18 -2.960207 3.904056
19 -2.279777 0.045233
20 0.429514 -1.492100
EOF