NAME: distribution-uniform_generation_type-euclidean_city_size-30_range-90.0_mutation_type-random_sampling_generation-15_iteration-133553.0
TYPE: TSP
DIMENSION: 30
EDGE_WEIGHT_TYPE: EUC_2D
COMMENT: Generation 15, Iteration 133553.0
NODE_COORD_SECTION
1 -8.890456 12.549356
2 3.531117 -4.267102
3 2.197814 -6.865804
4 -3.476741 8.355870
5 0.074656 4.397707
6 2.557656 -9.154630
7 2.421917 6.535428
8 5.797161 1.996560
9 -12.815886 1.727665
10 -12.094451 -14.496070
11 4.520825 2.742910
12 -5.249423 -1.318371
13 0.178019 -12.394350
14 8.313506 15.093778
15 -0.882621 1.937067
16 -7.232508 -1.541494
17 4.239077 0.503126
18 14.868220 -5.551777
19 0.721968 -2.354456
20 -0.073334 10.245217
21 6.511807 -0.098394
22 -5.474238 -4.076927
23 8.109599 5.070054
24 -12.122926 -4.560603
25 10.804003 3.921722
26 0.076793 -6.548874
27 -8.736338 -4.393126
28 11.720344 -4.970598
29 3.770632 -5.572847
30 -13.366193 13.088963
EOF