NAME: distribution-uniform_generation_type-euclidean_city_size-30_range-95.0_mutation_type-random_sampling_generation-43_iteration-148794.0
TYPE: TSP
DIMENSION: 30
EDGE_WEIGHT_TYPE: EUC_2D
COMMENT: Generation 43, Iteration 148794.0
NODE_COORD_SECTION
1 16.039980 -14.527127
2 -15.269060 1.090755
3 -1.901986 -5.263184
4 6.338383 8.418963
5 4.475711 3.632082
6 -11.853636 -2.730668
7 -2.493199 -5.505458
8 -13.808455 7.773286
9 9.196851 1.520327
10 -3.115067 2.791515
11 -1.171973 5.890581
12 0.454019 9.362581
13 -9.809624 -3.316649
14 2.855522 9.753918
15 -8.186019 -5.644411
16 1.991714 5.909613
17 6.482390 13.765000
18 -7.836300 -5.490571
19 6.584667 1.449749
20 2.948914 -5.461435
21 -6.844156 6.552059
22 5.422038 -10.515180
23 4.390276 2.149321
24 9.173863 12.116215
25 9.097407 -5.425795
26 -12.307557 -1.986296
27 -1.982766 -13.824328
28 -1.319594 -7.987278
29 3.088543 0.810911
30 9.359115 -5.308497
EOF