NAME: distribution-lognormal_generation_type-euclidean_city_size-20_range-2.2_mutation_type-random_sampling_generation-8_iteration-193230.0
TYPE: TSP
DIMENSION: 20
EDGE_WEIGHT_TYPE: EUC_2D
COMMENT: Generation 8, Iteration 193230.0
NODE_COORD_SECTION
1 -1.768415 -1.846534
2 -1.183529 -2.116168
3 -1.698497 -3.123007
4 -2.012068 -0.822155
5 -1.454770 -2.739308
6 -1.942109 -1.975681
7 -1.410247 -2.663884
8 -1.309264 -2.484328
9 -1.766104 -1.853975
10 -1.806816 -1.912412
11 -1.274946 -2.418187
12 -1.410247 -2.663884
13 1.516060 -1.784357
14 36.749701 8.297742
15 -1.772590 -3.161020
16 -1.454381 -2.738873
17 -10.824874 33.836516
18 -1.378525 -2.594370
19 -2.280315 -2.361991
20 -1.518062 -2.874124
EOF