NAME: distribution-uniform_generation_type-euclidean_city_size-30_range-100.0_mutation_type-random_sampling_generation-87_iteration-296663.0
TYPE: TSP
DIMENSION: 30
EDGE_WEIGHT_TYPE: EUC_2D
COMMENT: Generation 87, Iteration 296663.0
NODE_COORD_SECTION
1 8.256683 -10.579278
2 -15.138396 -1.664285
3 -2.458951 -6.775273
4 -6.512986 -2.799221
5 5.541083 -10.218946
6 -0.238125 -0.188631
7 -4.650037 -12.169686
8 -8.412407 -4.242718
9 12.562290 6.618618
10 7.513061 -15.522890
11 7.515592 3.444038
12 -17.093062 -1.334466
13 11.099941 -0.145574
14 9.379848 -1.854543
15 -2.610505 11.918936
16 -1.940856 11.273800
17 0.566273 18.598643
18 -8.692974 -4.384713
19 -14.389760 1.066893
20 3.939963 -1.556072
21 10.263176 7.111164
22 8.360415 4.873040
23 -7.250955 -12.968631
24 9.305169 -2.325704
25 3.057081 0.412641
26 -6.583357 -5.821146
27 8.766811 8.208664
28 6.732006 -4.427163
29 -11.844356 17.396357
30 -5.042666 8.056144
EOF