NAME: distribution-uniform_generation_type-euclidean_city_size-30_range-95.0_mutation_type-random_sampling_generation-63_iteration-118676.0
TYPE: TSP
DIMENSION: 30
EDGE_WEIGHT_TYPE: EUC_2D
COMMENT: Generation 63, Iteration 118676.0
NODE_COORD_SECTION
1 -0.222746 8.847595
2 -1.691912 -12.078632
3 -2.675751 3.154927
4 12.701291 5.711064
5 9.068782 -2.556447
6 8.599227 -3.898430
7 15.646062 -2.143102
8 1.094988 -12.650905
9 -12.493438 2.229208
10 -8.152069 0.798344
11 -0.581100 -1.442693
12 7.469580 6.265480
13 4.461223 0.661691
14 -1.604310 15.379308
15 -4.324230 -3.306891
16 -3.860065 9.363834
17 -0.638150 -4.140205
18 4.407077 -4.889284
19 6.247616 9.715926
20 -6.929753 -0.451523
21 9.939680 13.719413
22 -3.885108 4.081036
23 -14.639860 11.865590
24 -13.898474 -9.134858
25 -0.514473 -11.251084
26 6.571366 -2.298132
27 3.487542 -8.422620
28 -10.804484 0.820862
29 4.277440 -10.388799
30 -7.055949 -3.560673
EOF