NAME: distribution-uniform_generation_type-euclidean_city_size-20_range-45.0_mutation_type-random_sampling_generation-89_iteration-68.0
TYPE: TSP
DIMENSION: 20
EDGE_WEIGHT_TYPE: EUC_2D
COMMENT: Generation 89, Iteration 68.0
NODE_COORD_SECTION
1 1.187158 -0.313480
2 -0.495620 -0.378315
3 -5.808445 1.676571
4 -5.976199 6.248640
5 -2.142835 -1.899640
6 0.226382 7.125858
7 -3.168609 -6.095978
8 2.021714 1.661615
9 2.702243 -7.942019
10 -5.288196 1.819433
11 6.028490 6.324424
12 5.668523 -1.734867
13 6.140307 2.560889
14 3.539918 2.689221
15 1.796885 -5.500839
16 -6.803666 -4.309426
17 3.960397 -1.480083
18 -0.608183 -1.323542
19 -6.348355 2.146987
20 3.368088 -1.275449
EOF