NAME: distribution-lognormal_generation_type-euclidean_city_size-20_range-0.4_mutation_type-random_sampling_generation-30_iteration-96.0
TYPE: TSP
DIMENSION: 20
EDGE_WEIGHT_TYPE: EUC_2D
COMMENT: Generation 30, Iteration 96.0
NODE_COORD_SECTION
1 -0.787930 -0.626798
2 -0.156677 1.940079
3 -2.152244 0.259202
4 1.374562 0.948101
5 0.191765 -0.735647
6 -1.220642 -0.704681
7 0.629212 -0.899020
8 0.783670 0.295328
9 1.444104 -1.042129
10 -0.340595 -1.764312
11 -0.626799 -0.220824
12 0.001098 0.141806
13 3.869940 1.181216
14 0.911994 1.352423
15 1.349707 -0.043526
16 -2.832082 1.579576
17 -1.010491 3.134049
18 -0.745537 -0.241616
19 -0.811533 -1.856066
20 0.128479 -2.697160
EOF