NAME: distribution-lognormal_generation_type-euclidean_city_size-20_range-0.8_mutation_type-random_sampling_generation-55_iteration-66.0
TYPE: TSP
DIMENSION: 20
EDGE_WEIGHT_TYPE: EUC_2D
COMMENT: Generation 55, Iteration 66.0
NODE_COORD_SECTION
1 -2.121716 -3.075003
2 0.506231 1.347622
3 0.537745 0.888252
4 -3.241729 -2.816710
5 -0.141053 0.899704
6 1.609817 -1.196173
7 2.299296 1.833564
8 -2.671167 1.076558
9 1.833975 0.458642
10 0.086994 -2.557067
11 2.940507 5.157312
12 1.887315 -0.655321
13 -9.098996 4.627019
14 1.497285 2.361902
15 1.084939 2.060887
16 2.003620 -2.744734
17 1.784966 -0.889649
18 1.416475 -0.927311
19 -2.722293 -5.278566
20 0.507788 -0.570926
EOF