NAME: distribution-uniform_generation_type-euclidean_city_size-20_range-25.0_mutation_type-random_sampling_generation-61_iteration-104.0
TYPE: TSP
DIMENSION: 20
EDGE_WEIGHT_TYPE: EUC_2D
COMMENT: Generation 61, Iteration 104.0
NODE_COORD_SECTION
1 2.795376 4.923488
2 -0.071026 -1.520399
3 1.811451 0.682306
4 -1.100804 2.608680
5 2.525322 -1.994013
6 1.106511 1.775246
7 -3.970853 -2.786906
8 -0.877682 -0.106281
9 -1.932262 -0.138065
10 0.424888 -0.807933
11 3.039180 1.608540
12 -0.885676 -3.224992
13 -1.620281 3.369000
14 -3.045405 0.939715
15 -2.473046 -3.635014
16 0.521681 -2.494419
17 0.004814 3.283376
18 3.469420 -3.186367
19 -4.919888 1.974735
20 5.198282 -1.270697
EOF