NAME: distribution-uniform_generation_type-euclidean_city_size-20_range-15.0_mutation_type-random_sampling_generation-8_iteration-57.0
TYPE: TSP
DIMENSION: 20
EDGE_WEIGHT_TYPE: EUC_2D
COMMENT: Generation 8, Iteration 57.0
NODE_COORD_SECTION
1 1.738317 -0.124208
2 -2.828024 1.383093
3 -0.681511 0.248999
4 0.085309 1.692356
5 -1.755372 -2.630570
6 2.436422 0.278952
7 1.437300 0.561213
8 -3.369182 0.685578
9 -0.780441 -1.464494
10 1.218368 -1.146135
11 1.481636 0.246563
12 -0.145248 -0.419284
13 0.555405 1.322796
14 1.199546 -3.239811
15 1.406133 2.134907
16 -1.271715 -1.248418
17 0.188791 2.516079
18 -1.363714 -0.995965
19 -1.092517 1.287851
20 1.540498 -1.089503
EOF