NAME: distribution-lognormal_generation_type-euclidean_city_size-20_range-2.0_mutation_type-random_sampling_generation-9_iteration-543112.0
TYPE: TSP
DIMENSION: 20
EDGE_WEIGHT_TYPE: EUC_2D
COMMENT: Generation 9, Iteration 543112.0
NODE_COORD_SECTION
1 -1.624897 -0.853923
2 -1.263297 2.213160
3 -2.319569 2.165638
4 -1.412361 1.272366
5 29.887033 -3.806935
6 2.719244 1.938859
7 -1.198298 2.236206
8 -1.388916 1.144278
9 -1.342767 2.455236
10 -2.239451 2.241385
11 -1.200759 2.215219
12 -5.486493 -28.177858
13 -1.823015 1.798172
14 -1.134687 2.175747
15 -1.469934 2.596518
16 -1.177634 2.157165
17 -1.374793 2.524403
18 -2.070801 2.000808
19 -1.493493 1.377487
20 -2.585113 0.326070
EOF