NAME: distribution-lognormal_generation_type-euclidean_city_size-20_range-0.4_mutation_type-random_sampling_generation-91_iteration-88.0
TYPE: TSP
DIMENSION: 20
EDGE_WEIGHT_TYPE: EUC_2D
COMMENT: Generation 91, Iteration 88.0
NODE_COORD_SECTION
1 -0.389484 -0.338654
2 -2.838492 -3.486386
3 0.226011 -0.744433
4 2.066548 0.078436
5 -2.883003 2.843447
6 0.105931 -0.755197
7 0.597472 0.428809
8 -0.665023 1.344318
9 0.342215 1.792537
10 0.108680 0.106606
11 -1.077825 -1.244955
12 0.460927 0.754629
13 1.129829 1.027311
14 0.967313 0.440760
15 1.855694 -0.608726
16 1.330095 -0.536565
17 -0.917932 -1.092830
18 1.242553 0.004062
19 0.709786 -1.364526
20 -2.371295 1.351356
EOF