NAME: distribution-uniform_generation_type-euclidean_city_size-30_range-55.0_mutation_type-random_sampling_generation-95_iteration-144717.0
TYPE: TSP
DIMENSION: 30
EDGE_WEIGHT_TYPE: EUC_2D
COMMENT: Generation 95, Iteration 144717.0
NODE_COORD_SECTION
1 2.534051 -4.134651
2 0.113887 5.771630
3 4.149716 4.504222
4 0.354547 2.565366
5 -3.547654 -2.273328
6 7.828615 -1.900125
7 -4.686615 8.183433
8 1.177319 -1.303206
9 -2.137729 0.775027
10 -1.903838 -1.533963
11 1.274076 -3.372951
12 3.555288 -2.452170
13 7.931414 -4.189178
14 3.185234 -3.609129
15 -2.761766 -0.607923
16 3.205014 -8.877671
17 -6.358083 -3.425725
18 -1.835742 -7.846348
19 6.884345 2.829921
20 1.291997 2.746848
21 3.760682 6.719627
22 -6.957491 1.442491
23 -0.266725 7.669894
24 -3.450240 -5.946007
25 -4.014153 1.940249
26 3.057621 -0.635365
27 -0.409321 8.772737
28 6.345768 1.991926
29 -7.474357 -3.959247
30 -10.845862 0.153616
EOF