NAME: distribution-uniform_generation_type-euclidean_city_size-20_range-50.0_mutation_type-random_sampling_generation-46_iteration-75.0
TYPE: TSP
DIMENSION: 20
EDGE_WEIGHT_TYPE: EUC_2D
COMMENT: Generation 46, Iteration 75.0
NODE_COORD_SECTION
1 4.531662 4.463940
2 0.795696 3.786135
3 7.537255 8.704200
4 -0.931276 1.098731
5 -4.408498 0.560497
6 4.617472 -11.731605
7 0.552697 3.197013
8 3.606328 -2.570929
9 6.809416 -6.426187
10 -3.449503 -4.078416
11 -8.666313 5.405111
12 -8.728744 0.345566
13 -0.829568 6.987407
14 -7.386788 -4.205139
15 -4.109686 -5.734064
16 3.684710 0.706104
17 -4.199312 1.701188
18 7.535141 -0.805030
19 5.135907 2.032865
20 -2.096596 -3.437388
EOF