NAME: distribution-uniform_generation_type-euclidean_city_size-30_range-65.0_mutation_type-random_sampling_generation-95_iteration-191037.0
TYPE: TSP
DIMENSION: 30
EDGE_WEIGHT_TYPE: EUC_2D
COMMENT: Generation 95, Iteration 191037.0
NODE_COORD_SECTION
1 2.801503 -1.185798
2 -5.378947 3.391257
3 -8.882951 -4.525145
4 4.358151 6.365287
5 -0.683684 7.296320
6 3.323135 8.016163
7 -1.094994 -8.568744
8 3.456245 -3.837406
9 5.712426 -2.668748
10 2.006840 3.824962
11 -6.745520 5.108176
12 -1.066035 -9.446175
13 6.072159 -6.466004
14 3.712939 4.891172
15 -13.218904 3.437075
16 -3.420244 6.699938
17 1.350093 -2.590951
18 7.594222 0.106691
19 3.332721 4.245844
20 0.032510 -6.088924
21 -2.701326 -2.321244
22 3.225114 -0.916982
23 -1.584436 1.647549
24 -0.506611 -2.929080
25 1.776560 7.183785
26 -12.155685 -1.311450
27 8.505360 -5.428713
28 4.593755 4.458407
29 0.414939 0.056490
30 -4.829334 -8.443750
EOF