NAME: distribution-uniform_generation_type-euclidean_city_size-30_range-30.0_mutation_type-random_sampling_generation-94_iteration-155054.0
TYPE: TSP
DIMENSION: 30
EDGE_WEIGHT_TYPE: EUC_2D
COMMENT: Generation 94, Iteration 155054.0
NODE_COORD_SECTION
1 -4.541320 2.747391
2 -1.519337 3.569456
3 4.040692 1.541664
4 5.148504 2.323200
5 3.980990 -3.198221
6 -0.593619 3.788328
7 3.913251 -2.924669
8 -3.150850 -1.453484
9 2.567620 -2.362044
10 2.336622 1.416962
11 -1.400747 -3.416397
12 -1.131775 -6.050264
13 5.282913 3.136449
14 -1.445508 2.618099
15 1.442473 0.568439
16 -2.968838 -1.583285
17 -0.985761 -1.078357
18 -3.849174 0.300198
19 -2.097334 2.009025
20 1.469139 2.112643
21 -3.374624 -0.715387
22 -5.296291 -2.490542
23 -1.334715 -2.229584
24 1.571922 1.287809
25 4.393519 -2.072699
26 -1.724532 7.163723
27 -4.224530 -3.873386
28 -0.829989 3.936974
29 3.518495 -4.637796
30 0.802803 -0.434244
EOF