NAME: distribution-uniform_generation_type-euclidean_city_size-20_range-30.0_mutation_type-random_sampling_generation-48_iteration-86.0
TYPE: TSP
DIMENSION: 20
EDGE_WEIGHT_TYPE: EUC_2D
COMMENT: Generation 48, Iteration 86.0
NODE_COORD_SECTION
1 -0.947607 -0.633378
2 -3.160554 -4.699041
3 2.464750 -2.006878
4 -1.980424 5.122986
5 -2.139508 -2.549855
6 -1.746507 6.134911
7 1.165595 3.513232
8 -5.243677 3.596091
9 5.742654 1.947581
10 -1.272225 -1.272246
11 5.172200 0.145139
12 -2.447983 -5.005070
13 6.568484 0.033413
14 -1.469975 2.606481
15 -1.245756 -0.119414
16 3.180651 -6.371799
17 -4.112750 -4.920076
18 3.647777 -0.059280
19 3.281306 2.554819
20 -5.456454 1.982386
EOF