NAME: distribution-uniform_generation_type-euclidean_city_size-30_range-65.0_mutation_type-random_sampling_generation-27_iteration-128367.0
TYPE: TSP
DIMENSION: 30
EDGE_WEIGHT_TYPE: EUC_2D
COMMENT: Generation 27, Iteration 128367.0
NODE_COORD_SECTION
1 4.466570 -4.058347
2 2.407029 1.551268
3 -2.649854 -0.223980
4 3.688321 -7.184161
5 -6.579290 -7.432248
6 4.342459 4.605525
7 -9.527584 -5.320708
8 -2.413369 12.294294
9 -4.683201 -7.857154
10 1.334905 -4.455958
11 -7.273731 -6.226070
12 -3.539131 7.196542
13 -0.541318 -0.223365
14 -7.345960 8.412211
15 -4.892039 -0.170245
16 1.546908 0.450631
17 2.374360 3.159013
18 -2.279584 -1.069768
19 -3.504328 6.533869
20 9.921082 -3.563588
21 -6.394038 -1.632057
22 -4.945648 1.654169
23 3.368118 -4.312734
24 4.473865 8.778634
25 0.082417 -1.887302
26 9.462261 3.715007
27 2.168010 3.769522
28 7.279244 -0.545914
29 -1.078519 -0.499611
30 10.732048 -5.457474
EOF