NAME: distribution-lognormal_generation_type-euclidean_city_size-20_range-2.0_mutation_type-random_sampling_generation-53_iteration-452929.0
TYPE: TSP
DIMENSION: 20
EDGE_WEIGHT_TYPE: EUC_2D
COMMENT: Generation 53, Iteration 452929.0
NODE_COORD_SECTION
1 1.360737 -0.837235
2 -0.364446 0.078602
3 1.441935 -1.591618
4 1.239419 -0.694124
5 1.090326 -1.899229
6 0.460699 0.029302
7 1.195826 -0.838148
8 1.925442 -8.491447
9 1.536017 -1.011355
10 0.889876 0.821635
11 0.899717 -0.813150
12 -22.579763 1.092147
13 1.029015 6.879420
14 -0.260764 -4.862166
15 1.663258 -1.433701
16 0.892954 -0.953749
17 1.150778 -0.891451
18 1.159068 -2.566714
19 3.027031 10.844197
20 2.242876 7.138785
EOF