NAME: distribution-lognormal_generation_type-euclidean_city_size-20_range-0.4_mutation_type-random_sampling_generation-17_iteration-96.0
TYPE: TSP
DIMENSION: 20
EDGE_WEIGHT_TYPE: EUC_2D
COMMENT: Generation 17, Iteration 96.0
NODE_COORD_SECTION
1 -0.910636 -0.598330
2 0.837691 1.465997
3 -2.213085 -0.266863
4 0.688936 -0.521163
5 0.608052 0.961284
6 1.613445 -4.355311
7 2.439559 -0.301460
8 -0.290979 -0.670488
9 -0.305743 -1.357914
10 -0.763388 1.343587
11 3.297759 1.509429
12 0.918799 1.338323
13 -0.319979 0.033873
14 -1.410620 -0.361907
15 0.167798 0.970536
16 -1.683751 -0.587792
17 -0.139592 -0.403293
18 -1.585771 0.744716
19 -1.027476 1.111203
20 0.078980 -0.054426
EOF