NAME: distribution-uniform_generation_type-euclidean_city_size-20_range-15.0_mutation_type-random_sampling_generation-93_iteration-75.0
TYPE: TSP
DIMENSION: 20
EDGE_WEIGHT_TYPE: EUC_2D
COMMENT: Generation 93, Iteration 75.0
NODE_COORD_SECTION
1 -2.312714 -0.746825
2 1.896148 -2.028213
3 2.067601 -1.441212
4 2.974292 0.379005
5 -1.912107 3.685176
6 1.444110 -0.297548
7 -2.746181 -3.175100
8 -0.240526 -0.288783
9 0.840951 1.301524
10 -0.241407 -0.117337
11 2.584146 1.103855
12 0.317038 1.670722
13 -0.882521 0.228573
14 -0.875556 0.216435
15 -1.413104 0.706622
16 0.152663 -1.772058
17 -0.398690 -0.001894
18 -0.387681 0.617544
19 -0.547150 -0.173028
20 -0.319313 0.132542
EOF