NAME: distribution-uniform_generation_type-euclidean_city_size-30_range-90.0_mutation_type-random_sampling_generation-43_iteration-223728.0
TYPE: TSP
DIMENSION: 30
EDGE_WEIGHT_TYPE: EUC_2D
COMMENT: Generation 43, Iteration 223728.0
NODE_COORD_SECTION
1 -3.735758 11.098338
2 1.479546 -11.491649
3 -7.507362 6.877816
4 -2.482937 5.756772
5 9.368801 3.344726
6 -14.287868 -3.318020
7 12.533058 7.593518
8 4.867822 8.895512
9 4.531385 9.745540
10 7.953231 -8.005004
11 -6.170622 -2.710819
12 -6.360847 2.150865
13 -1.995303 -6.192798
14 -7.908637 -9.068537
15 4.092526 2.660175
16 4.347569 2.804781
17 -3.953546 -2.781553
18 -3.278621 4.862983
19 1.088108 -16.782255
20 11.915185 6.691312
21 5.727276 10.851761
22 -6.557525 4.406478
23 4.033141 -12.004524
24 -13.787658 -1.361213
25 12.673562 -4.808600
26 -14.343913 8.797148
27 1.561760 -7.546551
28 10.412524 -4.989111
29 -6.211593 -2.210984
30 1.996695 -3.266106
EOF