NAME: distribution-lognormal_generation_type-euclidean_city_size-30_range-1.2_mutation_type-random_sampling_generation-8_iteration-30290541.0
TYPE: TSP
DIMENSION: 30
EDGE_WEIGHT_TYPE: EUC_2D
COMMENT: Generation 8, Iteration 30290541.0
NODE_COORD_SECTION
1 0.925164 -3.570111
2 0.232643 -0.083374
3 -1.524459 0.014232
4 1.896877 3.119060
5 -1.160653 2.927047
6 -2.561072 -7.505535
7 -0.580388 2.136009
8 -1.686121 -7.356887
9 0.124696 0.863789
10 -0.565135 1.244874
11 -1.523790 2.467991
12 -2.251752 1.120712
13 -1.545930 4.576081
14 -0.853844 0.267715
15 -0.171821 0.730794
16 -1.036574 0.175384
17 -1.250857 1.394471
18 -1.775630 -5.763562
19 -0.309061 0.862928
20 -0.713819 0.754003
21 17.316958 -0.966985
22 -0.137834 -1.116257
23 -0.042624 0.166148
24 1.601002 -2.630674
25 1.021393 0.673597
26 0.034236 0.764809
27 -0.646002 0.107975
28 -0.967229 2.180989
29 -1.451618 -0.463156
30 -0.396759 2.907934
EOF