NAME: distribution-uniform_generation_type-euclidean_city_size-30_range-70.0_mutation_type-random_sampling_generation-34_iteration-231045.0
TYPE: TSP
DIMENSION: 30
EDGE_WEIGHT_TYPE: EUC_2D
COMMENT: Generation 34, Iteration 231045.0
NODE_COORD_SECTION
1 -6.881706 13.363231
2 -1.047049 1.716719
3 6.194144 -7.404872
4 -6.375506 -9.999715
5 -5.997833 4.607210
6 -10.999352 1.460571
7 -8.326627 -8.211015
8 -3.366418 -2.663181
9 -1.140092 -1.682186
10 2.139541 -4.701423
11 12.848123 -4.928200
12 5.507581 -8.175803
13 7.531108 10.996452
14 8.900928 -7.132282
15 -1.992165 5.224880
16 4.552419 -0.076730
17 12.324229 10.351267
18 1.492160 -2.885293
19 -1.347809 2.098790
20 1.727553 4.610749
21 8.572950 8.489478
22 -8.053900 -1.348452
23 -4.300405 0.594215
24 0.264345 -3.012848
25 1.445498 -7.690822
26 2.985503 0.651506
27 -5.142357 5.194743
28 -10.114272 -1.002178
29 1.664047 -5.926650
30 -3.064636 7.481838
EOF