NAME: distribution-uniform_generation_type-euclidean_city_size-20_range-25.0_mutation_type-random_sampling_generation-55_iteration-79.0
TYPE: TSP
DIMENSION: 20
EDGE_WEIGHT_TYPE: EUC_2D
COMMENT: Generation 55, Iteration 79.0
NODE_COORD_SECTION
1 0.433186 5.276592
2 -4.610925 0.573052
3 -0.766756 3.159119
4 1.802146 3.185826
5 -1.859667 -1.517730
6 -1.457588 0.364853
7 1.867809 -1.065267
8 -4.331623 -0.706986
9 -1.184949 0.261115
10 4.212430 -1.724089
11 -1.599996 -2.147980
12 -2.177578 -1.870586
13 1.304552 -0.176650
14 1.697563 -3.850054
15 -3.418565 1.820901
16 -0.355680 -1.539157
17 4.013961 -2.942673
18 1.801123 0.766245
19 4.293458 4.016857
20 0.337101 -1.883388
EOF