NAME: distribution-lognormal_generation_type-euclidean_city_size-20_range-0.4_mutation_type-random_sampling_generation-81_iteration-89.0
TYPE: TSP
DIMENSION: 20
EDGE_WEIGHT_TYPE: EUC_2D
COMMENT: Generation 81, Iteration 89.0
NODE_COORD_SECTION
1 -0.575420 -2.760433
2 1.045924 0.089767
3 0.456478 0.559360
4 2.222547 0.732738
5 0.112466 -1.953494
6 -0.276379 -0.616076
7 -2.153404 0.580488
8 -0.337981 1.128493
9 2.512257 -1.642485
10 0.202529 -0.186623
11 -2.602702 -1.273994
12 1.493492 0.308074
13 -0.166709 -0.201612
14 0.934676 -0.364288
15 -1.522638 2.861551
16 0.284617 0.692218
17 0.308737 0.187237
18 -1.687124 -0.380315
19 -1.424913 0.137626
20 1.173547 2.101769
EOF