NAME: distribution-uniform_generation_type-euclidean_city_size-30_range-40.0_mutation_type-random_sampling_generation-2_iteration-1039238.0
TYPE: TSP
DIMENSION: 30
EDGE_WEIGHT_TYPE: EUC_2D
COMMENT: Generation 2, Iteration 1039238.0
NODE_COORD_SECTION
1 1.366429 -2.750969
2 1.598767 1.400240
3 -0.408135 3.372281
4 1.112702 -5.684114
5 4.162135 -2.555701
6 -0.099443 7.075223
7 -4.412531 -1.241336
8 -4.075314 -4.858826
9 2.695461 -1.056818
10 3.302659 2.342353
11 4.238587 0.110822
12 -2.695120 -1.600002
13 -0.384385 1.187074
14 -3.236453 2.135821
15 -5.335916 -1.457376
16 -2.544706 -1.980020
17 5.613086 -6.232510
18 -8.420740 -2.511538
19 -0.583655 1.974344
20 6.061477 -7.296518
21 2.782660 -0.711374
22 -2.395330 -0.478716
23 -2.263407 2.074941
24 -4.649171 6.606088
25 -5.066279 -4.717537
26 9.122087 4.542599
27 3.511025 2.415384
28 -1.422595 3.498631
29 2.367111 2.775242
30 0.058991 3.622312
EOF