NAME: distribution-lognormal_generation_type-euclidean_city_size-20_range-2.0_mutation_type-random_sampling_generation-25_iteration-407258.0
TYPE: TSP
DIMENSION: 20
EDGE_WEIGHT_TYPE: EUC_2D
COMMENT: Generation 25, Iteration 407258.0
NODE_COORD_SECTION
1 -1.230573 -2.269402
2 -2.197038 -3.053672
3 -2.404044 4.681055
4 -1.761640 -1.636032
5 26.427540 2.085087
6 -0.538936 -2.440545
7 -1.709048 0.140241
8 -0.788222 -1.484239
9 -1.192373 -0.975213
10 -0.981507 -1.930208
11 -1.518262 -1.347426
12 0.049582 -1.584214
13 -1.920704 -1.836214
14 -1.147275 -1.950599
15 -1.040142 -0.624070
16 -3.858087 19.352160
17 -2.333308 -1.732226
18 -0.784769 -1.358689
19 1.050927 -1.476148
20 -2.122120 -0.559646
EOF