NAME: distribution-uniform_generation_type-euclidean_city_size-30_range-30.0_mutation_type-random_sampling_generation-92_iteration-165467.0
TYPE: TSP
DIMENSION: 30
EDGE_WEIGHT_TYPE: EUC_2D
COMMENT: Generation 92, Iteration 165467.0
NODE_COORD_SECTION
1 -2.955774 1.037679
2 1.397187 -0.918834
3 5.511915 -1.866883
4 -4.292013 -2.192676
5 -0.602673 -1.324351
6 -1.636243 2.457051
7 0.570013 -5.928348
8 -0.231253 -0.227910
9 -0.525360 -2.778943
10 -5.176645 2.272513
11 1.235531 -0.431061
12 -6.112062 -1.768410
13 -3.920188 3.386036
14 1.307803 6.478395
15 2.634634 0.335963
16 -2.855086 5.387360
17 -1.655704 -1.621668
18 -0.535633 1.762639
19 3.431018 -4.039425
20 0.633127 3.067066
21 -0.011334 -0.609772
22 -1.175955 -6.697599
23 4.881957 0.323073
24 2.675861 2.264547
25 -2.737983 -2.408013
26 3.561162 1.827299
27 1.220069 -1.908457
28 6.262914 2.416037
29 -2.126833 0.666955
30 1.227550 1.039739
EOF