NAME: distribution-uniform_generation_type-euclidean_city_size-30_range-95.0_mutation_type-random_sampling_generation-11_iteration-105814.0
TYPE: TSP
DIMENSION: 30
EDGE_WEIGHT_TYPE: EUC_2D
COMMENT: Generation 11, Iteration 105814.0
NODE_COORD_SECTION
1 -0.487564 1.136164
2 0.728107 5.316192
3 4.984765 9.507927
4 -5.148190 4.033806
5 -1.034801 -5.219658
6 0.332531 -12.332728
7 2.173184 -13.652671
8 -11.487733 9.697947
9 -5.952502 -1.503774
10 1.320164 11.140901
11 -14.827520 -4.852745
12 1.019152 3.434213
13 -4.258981 -12.393573
14 15.315899 2.720106
15 13.744854 1.278060
16 -3.175221 9.279550
17 -5.616753 -5.746771
18 9.322189 -3.705313
19 -14.438145 8.818683
20 5.873268 10.277261
21 5.212817 -7.160678
22 -4.869427 -1.440695
23 1.766993 6.029040
24 8.890954 3.747562
25 14.532924 -1.555806
26 -1.406912 -15.347974
27 6.711028 2.786746
28 -5.211186 -4.310901
29 -11.191552 6.733816
30 -2.822340 -6.714686
EOF