NAME: distribution-uniform_generation_type-euclidean_city_size-30_range-65.0_mutation_type-random_sampling_generation-53_iteration-1061169.0
TYPE: TSP
DIMENSION: 30
EDGE_WEIGHT_TYPE: EUC_2D
COMMENT: Generation 53, Iteration 1061169.0
NODE_COORD_SECTION
1 7.779888 -2.938377
2 0.418996 -11.229258
3 12.333001 -2.514898
4 -5.885326 -1.237236
5 6.036192 2.664728
6 3.424603 2.290598
7 -5.932298 0.585979
8 3.631294 -4.459033
9 -7.232382 -3.228150
10 -7.227117 -3.293049
11 -5.607244 -1.288133
12 2.401559 4.241323
13 -0.813512 -5.287764
14 1.974745 -0.372222
15 4.200611 1.524938
16 4.052986 -1.582166
17 -0.747255 12.194848
18 -11.687084 4.014618
19 -5.012916 -0.875045
20 -1.633111 12.850489
21 6.796953 -5.634780
22 -0.432754 -5.439567
23 7.236966 1.368421
24 -3.370800 5.636166
25 3.812275 4.804073
26 -0.056981 7.325353
27 -5.336482 -3.046964
28 3.797637 1.311770
29 1.055175 -1.045978
30 -7.977617 -7.340683
EOF