NAME: distribution-lognormal_generation_type-euclidean_city_size-20_range-1.8_mutation_type-random_sampling_generation-53_iteration-1695661.0
TYPE: TSP
DIMENSION: 20
EDGE_WEIGHT_TYPE: EUC_2D
COMMENT: Generation 53, Iteration 1695661.0
NODE_COORD_SECTION
1 1.869358 1.374345
2 2.974180 0.539557
3 3.066960 0.814100
4 3.806109 2.393941
5 -52.801987 -0.097634
6 1.374510 1.317296
7 3.617777 0.655649
8 2.957854 1.633062
9 3.854000 1.351505
10 2.985000 1.702700
11 3.585663 1.790557
12 2.973114 1.643402
13 -2.378983 -2.067481
14 3.784925 -22.869194
15 2.995852 1.727353
16 3.565901 1.742389
17 2.871407 1.438181
18 2.912007 1.521098
19 2.996266 1.691186
20 2.990089 1.697987
EOF