NAME: distribution-lognormal_generation_type-euclidean_city_size-20_range-1.0_mutation_type-random_sampling_generation-20_iteration-73.0
TYPE: TSP
DIMENSION: 20
EDGE_WEIGHT_TYPE: EUC_2D
COMMENT: Generation 20, Iteration 73.0
NODE_COORD_SECTION
1 -0.575895 3.209384
2 1.909124 -0.804988
3 0.064487 -0.401437
4 0.301186 -0.738807
5 0.613725 -0.867865
6 0.529425 1.548319
7 -2.475355 -9.386165
8 -5.097323 1.135344
9 -0.704243 -1.681803
10 1.960384 1.893502
11 1.783959 -0.929912
12 -0.481232 -0.069462
13 -10.223507 2.849525
14 1.680099 1.431337
15 0.100295 -1.476616
16 1.335434 1.128189
17 2.824655 -0.996472
18 1.194943 1.093803
19 1.882451 0.564309
20 3.377388 2.499814
EOF