NAME: distribution-lognormal_generation_type-euclidean_city_size-20_range-0.6_mutation_type-random_sampling_generation-24_iteration-3835868.0
TYPE: TSP
DIMENSION: 20
EDGE_WEIGHT_TYPE: EUC_2D
COMMENT: Generation 24, Iteration 3835868.0
NODE_COORD_SECTION
1 1.067552 0.657567
2 -2.108289 1.212045
3 -0.161702 1.419977
4 -1.732327 1.975026
5 -0.226276 -2.424209
6 2.098824 -1.277976
7 1.946765 -2.049371
8 1.974365 0.429951
9 -1.284442 1.281184
10 -1.891823 0.819802
11 1.433663 0.179437
12 4.147108 0.848436
13 0.610173 -2.597883
14 2.788817 -3.384694
15 0.144399 0.467588
16 -0.091909 4.048356
17 -0.049756 -0.584074
18 -5.829400 -2.736767
19 -2.979402 -1.696836
20 0.143660 3.412441
EOF