NAME: distribution-uniform_generation_type-euclidean_city_size-30_range-40.0_mutation_type-random_sampling_generation-18_iteration-429324.0
TYPE: TSP
DIMENSION: 30
EDGE_WEIGHT_TYPE: EUC_2D
COMMENT: Generation 18, Iteration 429324.0
NODE_COORD_SECTION
1 1.619532 -1.177450
2 1.676632 -1.403517
3 3.184068 -3.355270
4 2.286782 -2.106886
5 -8.381991 -1.752664
6 -2.033429 2.438105
7 3.461454 -4.507872
8 6.209489 2.578531
9 -2.216776 2.522894
10 1.877100 6.934871
11 3.766915 6.998712
12 1.374203 3.985615
13 -6.539536 -3.402395
14 -3.222002 -5.120368
15 4.193615 -2.369753
16 -4.264278 -1.722088
17 1.241818 -0.535921
18 -5.422261 -1.191188
19 -1.370289 4.237625
20 -2.479706 -0.349573
21 2.174068 -1.018032
22 2.166761 -3.241681
23 -4.700819 3.071414
24 -4.502193 3.044639
25 -0.499129 -4.334280
26 6.261518 1.900295
27 -0.931379 4.821342
28 6.466888 -6.503329
29 -0.290251 6.050713
30 -1.106804 -4.492489
EOF