NAME: distribution-uniform_generation_type-euclidean_city_size-30_range-75.0_mutation_type-random_sampling_generation-67_iteration-128492.0
TYPE: TSP
DIMENSION: 30
EDGE_WEIGHT_TYPE: EUC_2D
COMMENT: Generation 67, Iteration 128492.0
NODE_COORD_SECTION
1 -9.257427 4.711937
2 1.634190 -10.161364
3 -9.935297 -0.509037
4 0.601460 -1.473652
5 4.560425 -10.158990
6 -0.329418 -3.382854
7 -2.715755 3.210138
8 2.779694 -0.026731
9 2.405704 0.589630
10 -4.059369 2.291066
11 -2.856873 0.774344
12 -3.078495 8.712161
13 -5.910405 -6.830116
14 -4.417525 0.117368
15 10.766586 7.165287
16 13.701031 -9.716367
17 7.649826 5.208012
18 -3.617114 4.598810
19 0.174437 -0.311756
20 -2.558268 -4.475846
21 1.535648 -4.816670
22 -0.380309 3.562646
23 5.875240 11.669360
24 12.687457 -0.114574
25 -9.558030 -4.660341
26 5.688532 9.008972
27 1.103253 -10.821672
28 -0.844930 -3.480438
29 -10.218829 0.382032
30 -1.425441 8.938642
EOF