NAME: distribution-lognormal_generation_type-euclidean_city_size-30_range-1.2_mutation_type-random_sampling_generation-16_iteration-142175.0
TYPE: TSP
DIMENSION: 30
EDGE_WEIGHT_TYPE: EUC_2D
COMMENT: Generation 16, Iteration 142175.0
NODE_COORD_SECTION
1 1.477047 -2.300781
2 1.096809 -1.289126
3 -0.224677 -0.216818
4 0.434613 -2.494596
5 0.892440 -0.878292
6 9.944241 13.833047
7 0.728261 1.338812
8 0.567502 -2.485846
9 -14.244796 6.698494
10 0.011498 -0.653534
11 0.340983 -1.678834
12 -6.735462 3.259954
13 1.630746 2.357995
14 1.126441 -1.230342
15 0.289059 0.514743
16 1.421394 -0.620054
17 0.293639 -0.980592
18 -0.354999 -0.408932
19 -3.810700 0.620199
20 0.346126 -0.072121
21 1.180572 -0.823545
22 -0.263564 -1.276760
23 0.937181 -2.707350
24 0.181754 -1.499156
25 2.581203 -1.913501
26 1.066099 -1.380773
27 0.894982 -1.170127
28 -3.936010 -0.412137
29 0.866849 -0.598080
30 1.260770 -1.531947
EOF