NAME: distribution-uniform_generation_type-euclidean_city_size-20_range-45.0_mutation_type-random_sampling_generation-0_iteration-88.0
TYPE: TSP
DIMENSION: 20
EDGE_WEIGHT_TYPE: EUC_2D
COMMENT: Generation 0, Iteration 88.0
NODE_COORD_SECTION
1 -5.222669 -6.221081
2 -5.092338 1.485816
3 -1.196570 0.598917
4 5.831553 -0.609922
5 0.697784 -1.661538
6 5.772935 -4.682122
7 -2.947199 -7.360554
8 -5.885574 -2.864573
9 0.953618 5.374812
10 -5.439538 2.481248
11 6.392979 -1.285529
12 -1.135784 -4.971616
13 0.640280 1.976041
14 -1.836926 5.302097
15 3.724995 -0.345135
16 -0.453330 -3.219317
17 -3.334874 6.716581
18 0.109324 8.321966
19 10.036377 0.967680
20 -1.615042 -0.003769
EOF