NAME: distribution-uniform_generation_type-euclidean_city_size-20_range-45.0_mutation_type-random_sampling_generation-38_iteration-103.0
TYPE: TSP
DIMENSION: 20
EDGE_WEIGHT_TYPE: EUC_2D
COMMENT: Generation 38, Iteration 103.0
NODE_COORD_SECTION
1 -6.238759 6.742358
2 2.291857 8.016316
3 -6.913832 -3.384052
4 3.493443 0.832448
5 -4.347997 2.353450
6 3.878323 -8.142939
7 1.181542 -1.240858
8 6.206379 -2.132752
9 -2.100995 0.448501
10 0.233953 -6.892715
11 -4.200525 0.003622
12 3.056662 1.788109
13 -3.412734 -1.680653
14 -2.114092 7.284652
15 -2.340963 -5.257979
16 4.280284 -1.253770
17 -5.784189 -0.907480
18 -1.305857 -3.067362
19 8.152095 2.595624
20 5.985404 3.895479
EOF