NAME: distribution-lognormal_generation_type-euclidean_city_size-30_range-1.8_mutation_type-random_sampling_generation-0_iteration-242778.0
TYPE: TSP
DIMENSION: 30
EDGE_WEIGHT_TYPE: EUC_2D
COMMENT: Generation 0, Iteration 242778.0
NODE_COORD_SECTION
1 0.655602 -1.408477
2 0.174005 -0.359791
3 0.530738 -1.803635
4 0.821631 -1.159754
5 1.104636 -1.770050
6 0.171651 -1.024935
7 3.135257 14.365571
8 1.195741 -7.044740
9 1.254831 -1.291498
10 0.366917 -1.425620
11 -25.492385 1.779364
12 0.929778 -1.222641
13 0.411566 -0.706191
14 0.625775 2.692186
15 0.892368 -0.954620
16 0.756730 -0.223596
17 0.519893 -1.038582
18 2.568265 7.367824
19 0.796007 -0.875289
20 0.657782 -0.461191
21 1.190437 -0.941630
22 0.497797 0.088129
23 1.403819 0.167383
24 1.098696 -0.999171
25 0.718124 -0.388823
26 0.904122 -0.192146
27 1.583175 1.360850
28 0.646546 -1.465039
29 0.519209 -0.170478
30 -0.638714 -0.893413
EOF