NAME: distribution-lognormal_generation_type-euclidean_city_size-20_range-0.6_mutation_type-random_sampling_generation-0_iteration-98.0
TYPE: TSP
DIMENSION: 20
EDGE_WEIGHT_TYPE: EUC_2D
COMMENT: Generation 0, Iteration 98.0
NODE_COORD_SECTION
1 -1.577498 0.111640
2 -0.724569 1.436174
3 10.285056 -2.583577
4 -0.301416 4.199583
5 -0.428948 0.894068
6 -0.742655 -1.221355
7 -0.887513 0.678575
8 0.049849 -0.286640
9 1.088581 -0.393748
10 -0.324488 -1.041359
11 -0.635280 1.069927
12 -3.435711 -7.151457
13 1.779663 1.090403
14 -0.060992 2.773963
15 -1.104991 -0.936008
16 -2.478567 -1.475178
17 0.873122 0.510216
18 -0.713637 0.152861
19 -0.763664 1.931980
20 0.103658 0.239929
EOF