NAME: distribution-lognormal_generation_type-euclidean_city_size-20_range-1.0_mutation_type-random_sampling_generation-12_iteration-93.0
TYPE: TSP
DIMENSION: 20
EDGE_WEIGHT_TYPE: EUC_2D
COMMENT: Generation 12, Iteration 93.0
NODE_COORD_SECTION
1 -0.859374 1.306861
2 -0.765960 2.483433
3 -2.715866 -1.795877
4 0.150823 0.184808
5 -0.752849 0.150762
6 -0.362436 3.668462
7 -4.076513 -10.235152
8 -0.134734 0.157191
9 0.137912 1.245060
10 -0.145416 2.742630
11 -1.029642 2.073345
12 -1.141485 0.889856
13 0.264400 -0.712685
14 0.640997 1.494593
15 -0.763376 -1.421326
16 14.927225 -2.799201
17 -0.744563 -1.693835
18 -1.476380 0.909860
19 -1.041447 -1.505726
20 -0.111317 2.856941
EOF