NAME: distribution-uniform_generation_type-euclidean_city_size-20_range-10.0_mutation_type-random_sampling_generation-58_iteration-104.0
TYPE: TSP
DIMENSION: 20
EDGE_WEIGHT_TYPE: EUC_2D
COMMENT: Generation 58, Iteration 104.0
NODE_COORD_SECTION
1 -2.297509 1.927492
2 -0.209618 -0.741854
3 1.634223 0.672870
4 -0.575933 -0.083454
5 0.513406 1.925801
6 -0.682725 2.384094
7 -1.770692 1.766603
8 -0.240416 -1.110828
9 2.276436 -0.429377
10 -0.503301 -1.263464
11 1.993487 2.001424
12 -0.687495 -0.554377
13 1.859455 -2.954986
14 0.207761 -1.319509
15 0.492210 0.070089
16 -3.498777 -1.536078
17 -0.145198 0.483938
18 1.359990 0.426661
19 1.417908 0.211734
20 -1.143211 -1.876781
EOF