NAME: distribution-uniform_generation_type-euclidean_city_size-30_range-90.0_mutation_type-random_sampling_generation-52_iteration-179576.0
TYPE: TSP
DIMENSION: 30
EDGE_WEIGHT_TYPE: EUC_2D
COMMENT: Generation 52, Iteration 179576.0
NODE_COORD_SECTION
1 -1.332413 8.459909
2 -13.288392 -15.785676
3 -3.709337 2.907644
4 14.783379 -2.791760
5 4.389480 -10.554213
6 -12.573681 13.152772
7 -4.820227 7.812136
8 11.710198 1.963513
9 -12.087567 -8.738165
10 -3.959237 3.635073
11 9.042545 2.120749
12 -5.784265 -3.531809
13 -5.044909 14.659762
14 7.618871 4.718238
15 -4.539852 9.225752
16 3.965173 -14.350613
17 -7.171979 -7.946228
18 8.778079 2.278911
19 5.227727 9.729238
20 5.042853 1.676957
21 7.883913 -4.880068
22 -13.012319 -1.821328
23 7.095167 3.830423
24 4.537265 -2.463652
25 5.288282 -6.900722
26 -2.440046 -2.972936
27 4.867018 2.539915
28 4.872221 -6.299388
29 -7.351671 -2.328579
30 -7.986278 2.654147
EOF