NAME: distribution-uniform_generation_type-euclidean_city_size-20_range-60.0_mutation_type-random_sampling_generation-63_iteration-59.0
TYPE: TSP
DIMENSION: 20
EDGE_WEIGHT_TYPE: EUC_2D
COMMENT: Generation 63, Iteration 59.0
NODE_COORD_SECTION
1 -0.791537 8.620102
2 -4.097910 -6.430041
3 3.157122 -2.036890
4 10.948483 -6.032013
5 -0.465907 2.124923
6 -6.739953 -0.022088
7 1.295308 -0.543548
8 5.771015 5.739548
9 6.052370 9.557279
10 -3.535097 5.182815
11 0.131360 -7.425279
12 2.062698 -1.991609
13 -16.638800 4.877574
14 2.004563 5.424273
15 2.663530 0.458078
16 -3.019716 -14.113627
17 -7.960763 -3.856791
18 9.185591 -3.020375
19 2.636506 3.717840
20 -2.658864 -0.230170
EOF