NAME: distribution-uniform_generation_type-euclidean_city_size-20_range-45.0_mutation_type-random_sampling_generation-14_iteration-76.0
TYPE: TSP
DIMENSION: 20
EDGE_WEIGHT_TYPE: EUC_2D
COMMENT: Generation 14, Iteration 76.0
NODE_COORD_SECTION
1 -5.081421 5.523513
2 6.285470 -2.281127
3 -6.330952 -4.409733
4 -3.900120 2.386720
5 6.584068 -7.296439
6 -2.104267 -6.598194
7 2.212259 2.144230
8 -1.301537 1.890175
9 -3.939929 -0.129654
10 0.368131 3.564266
11 7.967785 0.137545
12 -1.416269 1.383639
13 -2.591199 3.721038
14 7.457359 3.653799
15 2.835129 0.319900
16 -0.184133 -9.779088
17 0.189017 0.294029
18 -5.593074 -2.746903
19 -4.938277 1.146422
20 3.481961 7.075863
EOF