NAME: distribution-lognormal_generation_type-euclidean_city_size-20_range-2.2_mutation_type-random_sampling_generation-19_iteration-7032198.0
TYPE: TSP
DIMENSION: 20
EDGE_WEIGHT_TYPE: EUC_2D
COMMENT: Generation 19, Iteration 7032198.0
NODE_COORD_SECTION
1 3.229558 -1.444479
2 3.189016 -1.313361
3 3.109623 -1.732741
4 3.134221 -4.168835
5 3.046909 -2.067107
6 3.182680 -1.290660
7 2.725033 -2.314158
8 3.296436 9.965435
9 2.711390 -2.324869
10 2.878789 -1.466279
11 -55.606500 0.289140
12 3.170215 -2.219621
13 3.262503 -1.599668
14 3.156706 -2.138353
15 3.223679 -1.406529
16 3.127714 -2.039399
17 3.310654 -1.507561
18 -0.818035 -1.825358
19 3.229008 -1.424875
20 3.440399 22.029280
EOF