NAME: distribution-lognormal_generation_type-euclidean_city_size-30_range-1.2_mutation_type-random_sampling_generation-10_iteration-319843.0
TYPE: TSP
DIMENSION: 30
EDGE_WEIGHT_TYPE: EUC_2D
COMMENT: Generation 10, Iteration 319843.0
NODE_COORD_SECTION
1 2.659656 -11.624970
2 -0.006960 0.705580
3 -0.544050 -1.535183
4 -0.848311 -0.120053
5 -0.433485 0.350738
6 -18.045330 3.867363
7 0.711396 -1.044563
8 1.443354 -0.206405
9 1.147943 -0.494131
10 6.014553 9.429448
11 1.806108 -4.825116
12 -0.717758 -0.096345
13 -0.031814 0.695957
14 -0.293514 0.149434
15 -1.585490 -0.405342
16 -0.549953 0.883282
17 -0.541318 -0.239865
18 1.142630 -0.416677
19 0.341573 -0.992109
20 0.410932 0.480500
21 1.354068 -2.890790
22 0.773901 0.620741
23 0.168047 -0.396590
24 -1.081959 -0.932323
25 0.408064 0.097612
26 -0.540248 0.288260
27 1.123999 0.131141
28 0.121652 -0.445842
29 -0.250199 -0.655197
30 5.842516 9.621447
EOF