NAME: distribution-uniform_generation_type-euclidean_city_size-30_range-60.0_mutation_type-random_sampling_generation-27_iteration-156653.0
TYPE: TSP
DIMENSION: 30
EDGE_WEIGHT_TYPE: EUC_2D
COMMENT: Generation 27, Iteration 156653.0
NODE_COORD_SECTION
1 4.145704 -4.074932
2 -9.718595 -6.196868
3 4.789781 4.807636
4 -3.250988 5.846875
5 -4.911693 1.935805
6 -4.999847 -3.237502
7 -7.808479 3.671875
8 3.672477 -7.121597
9 0.888759 -2.849245
10 1.864019 1.511300
11 1.930099 -4.345957
12 9.619777 -6.035099
13 6.124728 2.553114
14 -3.339017 3.558889
15 7.468734 -0.259531
16 -6.436247 3.623410
17 2.419422 8.953918
18 2.714195 -5.189875
19 7.684182 4.434799
20 3.338199 6.848249
21 1.003255 8.451219
22 -4.851787 -8.940208
23 -8.196878 -2.906747
24 1.596022 0.117378
25 6.102692 0.512823
26 -1.617178 7.542848
27 -7.078418 1.613240
28 -1.811246 -10.150188
29 7.109591 -5.740974
30 -8.451263 1.065347
EOF