NAME: distribution-uniform_generation_type-euclidean_city_size-20_range-15.0_mutation_type-random_sampling_generation-40_iteration-85.0
TYPE: TSP
DIMENSION: 20
EDGE_WEIGHT_TYPE: EUC_2D
COMMENT: Generation 40, Iteration 85.0
NODE_COORD_SECTION
1 -1.394020 -2.829711
2 -0.999556 -2.033482
3 -0.178804 -0.362894
4 0.492712 -0.593352
5 -0.186521 1.160362
6 0.114073 2.609566
7 1.807864 0.439422
8 -0.154944 0.423917
9 0.815435 -1.230423
10 2.430558 -1.138110
11 -1.118722 0.536614
12 -0.232120 -0.189197
13 3.523688 0.378781
14 -0.167939 -0.664647
15 0.082330 -0.573770
16 -2.973018 2.043899
17 -0.207134 -0.127796
18 -2.874674 -1.205898
19 1.481875 -0.099243
20 -0.261085 3.455962
EOF