NAME: distribution-uniform_generation_type-euclidean_city_size-30_range-65.0_mutation_type-random_sampling_generation-38_iteration-429886.0
TYPE: TSP
DIMENSION: 30
EDGE_WEIGHT_TYPE: EUC_2D
COMMENT: Generation 38, Iteration 429886.0
NODE_COORD_SECTION
1 -7.141961 1.231876
2 -0.348434 -11.937397
3 7.932811 -2.905376
4 -1.947061 -1.862622
5 -0.117101 -0.472722
6 2.567175 -3.234929
7 0.829943 2.687580
8 -3.675444 5.827195
9 7.745424 -0.649286
10 11.941435 1.716446
11 4.842125 9.232955
12 0.881036 -4.391759
13 -3.641428 4.520907
14 -10.127307 -0.552930
15 1.981626 4.351194
16 -1.832086 -11.399841
17 -2.456738 -5.448859
18 -10.274532 -2.318658
19 -8.313048 2.052830
20 -1.415657 4.029438
21 6.001594 -5.687058
22 -1.478728 8.786257
23 9.245868 -0.670271
24 3.168915 -2.428806
25 -2.338426 -2.818346
26 -5.498292 2.157617
27 -1.113390 -0.043621
28 2.367449 10.677953
29 1.586529 3.493963
30 0.627701 -3.943730
EOF