NAME: distribution-lognormal_generation_type-euclidean_city_size-20_range-2.0_mutation_type-random_sampling_generation-87_iteration-796203.0
TYPE: TSP
DIMENSION: 20
EDGE_WEIGHT_TYPE: EUC_2D
COMMENT: Generation 87, Iteration 796203.0
NODE_COORD_SECTION
1 3.656391 -1.135757
2 3.585375 -1.028888
3 3.625111 -1.113117
4 3.269522 -3.823764
5 3.592156 -0.030615
6 3.555956 -0.873742
7 3.181328 18.358340
8 2.915071 -2.546331
9 3.577866 -1.014307
10 2.657651 -1.326868
11 3.546576 -0.846498
12 -64.298793 -0.056006
13 3.641095 -1.206566
14 3.047304 1.622835
15 3.619488 -0.066131
16 3.378209 -1.386002
17 3.588994 -0.981248
18 3.379960 -1.450201
19 2.841634 0.063769
20 3.639106 -1.158902
EOF