NAME: distribution-uniform_generation_type-euclidean_city_size-30_range-45.0_mutation_type-random_sampling_generation-12_iteration-166453.0
TYPE: TSP
DIMENSION: 30
EDGE_WEIGHT_TYPE: EUC_2D
COMMENT: Generation 12, Iteration 166453.0
NODE_COORD_SECTION
1 -0.669002 4.165317
2 -2.096324 -6.660914
3 5.477950 -1.247541
4 3.137893 4.158051
5 0.084063 -7.385813
6 4.911439 3.781378
7 0.490632 -1.159336
8 4.904545 -2.487460
9 -6.598759 -0.935375
10 -8.045154 0.940129
11 -0.030266 1.116148
12 0.061858 -1.663015
13 -7.365702 -1.950215
14 -0.119959 -3.671539
15 0.385845 0.202322
16 -1.774646 -4.892396
17 -3.612863 4.209326
18 -0.787404 6.554817
19 -3.738025 4.302566
20 5.561573 -2.988349
21 4.310906 2.410677
22 -3.945029 0.846646
23 -0.884746 2.240189
24 -1.874332 -3.455534
25 1.386918 1.001263
26 1.760286 -4.772969
27 2.620445 4.739304
28 -0.257490 2.533431
29 5.026493 -2.376227
30 1.678857 2.445119
EOF