NAME: distribution-uniform_generation_type-euclidean_city_size-30_range-100.0_mutation_type-random_sampling_generation-77_iteration-882258.0
TYPE: TSP
DIMENSION: 30
EDGE_WEIGHT_TYPE: EUC_2D
COMMENT: Generation 77, Iteration 882258.0
NODE_COORD_SECTION
1 -6.501835 14.214091
2 -13.815267 -4.888701
3 -7.168618 -1.747372
4 11.908284 13.285825
5 -3.080786 -8.521054
6 6.485693 -2.737580
7 2.202782 -2.824520
8 -2.509585 -18.330536
9 -12.703151 5.274267
10 2.709009 0.817255
11 -9.262906 12.174077
12 10.867034 7.911336
13 -7.119433 -6.811071
14 -6.014800 10.452358
15 -4.801657 10.302378
16 16.026418 -4.566122
17 -11.400874 -0.923861
18 1.281198 0.931388
19 12.167337 -3.692795
20 -7.704883 -3.385977
21 3.278383 -17.848684
22 -1.581808 1.323550
23 11.625844 2.952845
24 -1.275133 -4.759939
25 8.245361 -3.421390
26 11.341128 -0.666970
27 5.711709 3.596333
28 2.704244 11.579469
29 -0.803767 -5.898039
30 -10.809922 -3.790560
EOF