NAME: distribution-uniform_generation_type-euclidean_city_size-30_range-55.0_mutation_type-random_sampling_generation-42_iteration-201825.0
TYPE: TSP
DIMENSION: 30
EDGE_WEIGHT_TYPE: EUC_2D
COMMENT: Generation 42, Iteration 201825.0
NODE_COORD_SECTION
1 0.226001 -1.771688
2 0.057257 3.911218
3 4.434315 -7.212596
4 -0.115059 5.239048
5 1.624736 6.640161
6 2.216946 -3.079675
7 -7.972155 -0.007597
8 5.620503 -1.566925
9 -0.134556 -1.877304
10 -1.010473 -2.366530
11 -8.774118 -0.553845
12 11.853452 -1.771864
13 6.371523 -2.281157
14 -9.670207 -5.323685
15 -3.431228 7.338742
16 -2.381464 6.775361
17 0.966978 2.988668
18 -4.196032 -4.343993
19 -3.841970 -3.511441
20 2.781846 -4.128263
21 -4.355545 1.255127
22 -0.283924 2.683490
23 -1.276505 -1.784888
24 4.493163 10.166732
25 -0.767450 1.163554
26 2.374777 -6.092716
27 3.616917 4.443746
28 -3.465206 -0.038650
29 0.970559 -3.105691
30 4.066918 -1.787339
EOF