NAME: distribution-uniform_generation_type-euclidean_city_size-30_range-85.0_mutation_type-random_sampling_generation-98_iteration-277224.0
TYPE: TSP
DIMENSION: 30
EDGE_WEIGHT_TYPE: EUC_2D
COMMENT: Generation 98, Iteration 277224.0
NODE_COORD_SECTION
1 -0.934252 3.412652
2 -0.424821 7.318568
3 0.092945 11.693123
4 0.183639 4.365255
5 -6.071375 1.568033
6 7.703686 -3.394719
7 -4.551872 -5.254558
8 -10.679629 -7.462383
9 2.776642 5.500496
10 0.207738 -12.066926
11 -3.606335 -7.060078
12 -0.469258 3.659896
13 -2.230887 -4.077663
14 12.057248 5.881465
15 -1.762010 -11.092811
16 -5.001828 2.523108
17 -7.185814 11.596738
18 -2.222657 -14.587006
19 7.860041 1.317414
20 -19.295473 0.954628
21 2.164683 7.932700
22 -11.983256 2.056676
23 8.206462 -2.198246
24 15.808198 -4.313231
25 2.743094 -0.766147
26 3.706489 8.098717
27 8.188929 3.717043
28 2.782744 -6.367331
29 -4.227501 5.458404
30 6.164430 -8.413820
EOF