NAME: distribution-lognormal_generation_type-euclidean_city_size-20_range-1.8_mutation_type-random_sampling_generation-46_iteration-201436.0
TYPE: TSP
DIMENSION: 20
EDGE_WEIGHT_TYPE: EUC_2D
COMMENT: Generation 46, Iteration 201436.0
NODE_COORD_SECTION
1 -0.007980 -2.995535
2 0.037588 -2.475028
3 -0.734052 -2.632756
4 -0.000219 -2.654295
5 -0.678570 -2.017726
6 -0.630344 -2.007327
7 -0.749351 -2.870979
8 -0.753246 -2.727079
9 0.830944 -1.748343
10 0.001044 -2.873457
11 -23.073449 25.967022
12 -0.015061 -3.000532
13 28.627838 20.421360
14 0.035262 -2.449611
15 -0.734980 -2.602231
16 -0.020215 -3.035378
17 -0.751470 -2.727468
18 -0.602254 -1.657830
19 -0.023530 -2.970120
20 -0.757953 -2.942687
EOF