NAME: distribution-lognormal_generation_type-euclidean_city_size-20_range-0.4_mutation_type-random_sampling_generation-26_iteration-89.0
TYPE: TSP
DIMENSION: 20
EDGE_WEIGHT_TYPE: EUC_2D
COMMENT: Generation 26, Iteration 89.0
NODE_COORD_SECTION
1 0.617658 -0.176684
2 1.282461 -1.797068
3 -0.690441 -0.234416
4 2.247178 1.192220
5 -2.158726 0.186088
6 0.176824 2.716905
7 -3.300148 0.518316
8 0.585786 -2.100628
9 -1.046469 0.042980
10 0.318496 -0.378950
11 -1.235958 -0.717090
12 -0.265295 0.021490
13 0.560551 -1.701415
14 3.329674 1.790763
15 0.180503 -0.222138
16 -1.012998 -0.955807
17 1.621469 0.542979
18 -1.225091 2.023255
19 -0.609703 1.742321
20 0.624229 -2.493121
EOF