NAME: distribution-lognormal_generation_type-euclidean_city_size-20_range-2.0_mutation_type-random_sampling_generation-59_iteration-209786.0
TYPE: TSP
DIMENSION: 20
EDGE_WEIGHT_TYPE: EUC_2D
COMMENT: Generation 59, Iteration 209786.0
NODE_COORD_SECTION
1 -3.168060 -2.827671
2 0.881191 -2.075025
3 -3.169797 -2.844036
4 -3.137632 -2.756201
5 -2.954264 -2.466034
6 -3.032318 -2.591238
7 -2.208183 -2.766417
8 -3.200903 -2.877703
9 1.896717 -1.826469
10 -3.079358 -2.669212
11 -3.006492 -2.534779
12 -3.324548 -2.687040
13 -3.418777 -0.888848
14 -8.288290 41.720844
15 -3.109244 -2.733034
16 54.284333 4.125823
17 -2.564567 -3.026659
18 -3.199363 -2.873028
19 -3.176159 -2.836796
20 -3.024285 -2.566477
EOF