NAME: distribution-uniform_generation_type-euclidean_city_size-30_range-90.0_mutation_type-random_sampling_generation-12_iteration-453124.0
TYPE: TSP
DIMENSION: 30
EDGE_WEIGHT_TYPE: EUC_2D
COMMENT: Generation 12, Iteration 453124.0
NODE_COORD_SECTION
1 -1.949604 7.900906
2 -1.854677 -13.477620
3 3.816313 -4.984966
4 1.721979 -2.573231
5 -3.026216 -6.506014
6 -7.847625 7.034453
7 -0.770912 10.633135
8 4.022674 3.035005
9 -0.512425 -1.128171
10 6.909045 11.349044
11 -0.033763 0.720088
12 -8.027248 -15.047611
13 0.378336 -3.530951
14 -10.460542 7.266233
15 -8.308698 1.124494
16 -4.274068 3.762854
17 -4.791530 6.467500
18 -6.894657 9.972409
19 -8.926958 -9.592771
20 -15.324207 -2.706541
21 10.837446 -10.705285
22 1.820897 -2.459310
23 4.548454 -2.215175
24 20.338590 8.288913
25 8.682956 4.907034
26 9.670206 0.317911
27 -1.697342 2.387043
28 -2.103539 6.536171
29 -1.812772 -6.862538
30 15.869887 -9.913009
EOF