NAME: distribution-lognormal_generation_type-euclidean_city_size-20_range-0.4_mutation_type-random_sampling_generation-42_iteration-1108245.0
TYPE: TSP
DIMENSION: 20
EDGE_WEIGHT_TYPE: EUC_2D
COMMENT: Generation 42, Iteration 1108245.0
NODE_COORD_SECTION
1 -1.902069 0.791623
2 -1.428851 0.787996
3 2.344351 -2.181832
4 1.137937 0.903619
5 0.388701 -0.267529
6 -0.463437 -0.529926
7 0.146297 -1.137719
8 0.771840 -0.308858
9 0.749916 0.532925
10 -2.834105 -1.042181
11 0.247719 2.742457
12 1.330697 -2.534415
13 -3.409806 -1.479207
14 -0.326524 2.338852
15 0.529617 1.035450
16 1.577935 -0.107452
17 1.254121 1.188289
18 -0.417656 -0.464185
19 0.460718 -0.103165
20 -0.157402 -0.164742
EOF