NAME: distribution-lognormal_generation_type-euclidean_city_size-20_range-2.2_mutation_type-random_sampling_generation-23_iteration-105056.0
TYPE: TSP
DIMENSION: 20
EDGE_WEIGHT_TYPE: EUC_2D
COMMENT: Generation 23, Iteration 105056.0
NODE_COORD_SECTION
1 -3.413422 18.611321
2 -3.324644 -2.720882
3 -2.386083 -1.366035
4 -2.049751 -1.381614
5 0.705142 -0.302895
6 -2.173016 -0.443611
7 -1.443054 0.508045
8 -0.150960 -0.246586
9 0.522579 -0.273287
10 -1.603212 -0.485933
11 14.970120 -1.244619
12 -0.928122 -0.288440
13 12.063626 0.505477
14 -6.828953 -8.537059
15 0.001801 -0.531602
16 -1.066172 -0.514820
17 -1.035769 -0.483950
18 -1.088556 -0.431107
19 -0.910644 -0.191309
20 0.139093 -0.181092
EOF