NAME: distribution-lognormal_generation_type-euclidean_city_size-20_range-2.0_mutation_type-random_sampling_generation-77_iteration-225974.0
TYPE: TSP
DIMENSION: 20
EDGE_WEIGHT_TYPE: EUC_2D
COMMENT: Generation 77, Iteration 225974.0
NODE_COORD_SECTION
1 -1.855475 1.829593
2 -0.289101 -0.019889
3 -1.062974 -0.091684
4 -2.266128 13.301191
5 -1.975622 -1.528622
6 -1.237603 0.036229
7 -1.355522 0.198925
8 -1.957183 -12.379384
9 -2.025288 0.072258
10 -2.555553 3.181544
11 -0.266777 -0.017564
12 -1.887576 -0.828469
13 26.119087 0.498924
14 -1.468513 0.118381
15 -1.006421 -0.680981
16 -1.954465 -0.678169
17 0.789949 -2.714372
18 -1.381905 0.063864
19 -1.051325 0.374882
20 -1.311605 -0.736657
EOF