NAME: distribution-lognormal_generation_type-euclidean_city_size-20_range-2.0_mutation_type-random_sampling_generation-20_iteration-204333.0
TYPE: TSP
DIMENSION: 20
EDGE_WEIGHT_TYPE: EUC_2D
COMMENT: Generation 20, Iteration 204333.0
NODE_COORD_SECTION
1 4.177373 1.644003
2 4.248248 0.692253
3 4.252314 0.711625
4 4.610156 -25.170497
5 4.147976 1.427222
6 4.178317 1.536637
7 -78.712594 -0.146773
8 2.140524 1.304546
9 4.195610 1.590860
10 4.864195 1.562904
11 4.217997 1.657144
12 4.275929 2.107788
13 4.155663 1.454660
14 4.212216 1.641661
15 4.180791 1.531115
16 4.117582 1.337078
17 4.132522 1.369460
18 4.197052 1.591433
19 4.160959 1.464095
20 4.247170 0.692785
EOF