NAME: distribution-lognormal_generation_type-euclidean_city_size-20_range-1.8_mutation_type-random_sampling_generation-13_iteration-446661.0
TYPE: TSP
DIMENSION: 20
EDGE_WEIGHT_TYPE: EUC_2D
COMMENT: Generation 13, Iteration 446661.0
NODE_COORD_SECTION
1 -1.577074 1.120090
2 -0.624265 -18.814014
3 -1.503318 1.312263
4 -1.911929 -9.738831
5 -1.725835 -0.008272
6 -1.543780 1.039286
7 -2.265518 1.936724
8 -1.808077 1.666636
9 -2.933772 3.983477
10 -1.966876 1.932637
11 -1.857746 1.747472
12 32.717931 0.666355
13 -1.402321 1.131729
14 -1.807377 1.654486
15 -2.098727 1.785552
16 -0.918521 1.966897
17 -1.994802 2.071702
18 -0.787073 2.180925
19 -1.971541 1.132423
20 -2.019379 1.232462
EOF