NAME: distribution-uniform_generation_type-euclidean_city_size-20_range-20.0_mutation_type-random_sampling_generation-51_iteration-86.0
TYPE: TSP
DIMENSION: 20
EDGE_WEIGHT_TYPE: EUC_2D
COMMENT: Generation 51, Iteration 86.0
NODE_COORD_SECTION
1 0.607593 3.335915
2 -1.828262 -2.029933
3 1.026181 2.542081
4 -0.025872 -4.740457
5 -0.161503 -2.460699
6 -3.575443 2.971070
7 1.559520 -1.778432
8 -2.627936 -0.211600
9 -0.311069 -5.002649
10 0.390331 -1.681409
11 2.386837 0.551999
12 4.671454 -0.103051
13 -2.937982 3.966679
14 -3.258228 -1.370387
15 2.787774 -0.542305
16 2.504154 3.708526
17 -2.655180 -0.030670
18 -1.202141 0.233201
19 4.963451 1.094323
20 -2.313676 1.547799
EOF