NAME: distribution-lognormal_generation_type-euclidean_city_size-20_range-2.8_mutation_type-random_sampling_generation-5_iteration-133883.0
TYPE: TSP
DIMENSION: 20
EDGE_WEIGHT_TYPE: EUC_2D
COMMENT: Generation 5, Iteration 133883.0
NODE_COORD_SECTION
1 -1.541109 1.909412
2 -1.701588 0.960305
3 -1.996119 1.723334
4 -1.823561 1.666038
5 -3.617874 -9.559870
6 -1.982496 1.600488
7 -0.670702 1.296370
8 -4.061713 5.191822
9 -1.230692 1.842612
10 24.045409 -2.448243
11 -4.626905 -18.027117
12 -1.894042 1.797204
13 -1.398915 2.107205
14 13.194058 0.225891
15 -2.470014 1.995767
16 -2.415563 1.576616
17 -1.875106 1.539683
18 -1.915404 1.637460
19 -1.699032 1.156919
20 -0.318633 1.808104
EOF