NAME: distribution-lognormal_generation_type-euclidean_city_size-20_range-2.8_mutation_type-random_sampling_generation-10_iteration-713134.0
TYPE: TSP
DIMENSION: 20
EDGE_WEIGHT_TYPE: EUC_2D
COMMENT: Generation 10, Iteration 713134.0
NODE_COORD_SECTION
1 -3.380960 2.437939
2 -2.555642 2.450825
3 -3.341117 2.171376
4 -3.365733 2.406541
5 -2.549164 2.437594
6 -2.600783 1.373753
7 -2.460323 2.719261
8 -2.561605 2.462012
9 55.109649 -3.046711
10 -2.504125 2.362282
11 -2.500642 2.352701
12 -2.461959 2.285012
13 -2.558125 2.455640
14 -2.453814 2.276543
15 -7.152127 -39.203652
16 -2.544649 2.430405
17 -2.473844 2.309237
18 -2.556156 2.451968
19 -2.532724 2.415304
20 -2.556156 2.451968
EOF