NAME: distribution-lognormal_generation_type-euclidean_city_size-20_range-0.8_mutation_type-random_sampling_generation-13_iteration-97.0
TYPE: TSP
DIMENSION: 20
EDGE_WEIGHT_TYPE: EUC_2D
COMMENT: Generation 13, Iteration 97.0
NODE_COORD_SECTION
1 2.228787 0.061821
2 4.964854 0.580855
3 -3.465373 -1.509738
4 0.365487 -0.578543
5 1.792946 -2.033102
6 -1.450963 -0.221411
7 -0.151138 1.447375
8 1.294820 1.707098
9 -1.489888 1.996621
10 1.919017 -6.756731
11 0.990033 -1.738862
12 -1.762981 -1.283337
13 6.045505 4.633684
14 -2.485944 3.085381
15 -0.715990 -0.766781
16 -1.159383 -0.399295
17 -4.882788 2.796207
18 -0.614693 0.970559
19 -1.009750 -1.278871
20 -0.412556 -0.712932
EOF