NAME: distribution-uniform_generation_type-euclidean_city_size-20_range-25.0_mutation_type-random_sampling_generation-76_iteration-92.0
TYPE: TSP
DIMENSION: 20
EDGE_WEIGHT_TYPE: EUC_2D
COMMENT: Generation 76, Iteration 92.0
NODE_COORD_SECTION
1 0.419883 0.434705
2 2.661680 -0.367093
3 1.237881 -2.121299
4 -0.883819 4.680719
5 3.068218 1.983732
6 1.962450 0.533026
7 2.034243 2.043119
8 -0.436038 -5.326920
9 -0.073541 4.858625
10 -0.536233 -3.752814
11 -3.278189 1.450908
12 0.542654 -2.718629
13 -5.069850 -0.311059
14 -2.146393 -2.777067
15 4.883099 -1.644733
16 1.632393 0.045382
17 -5.233412 -0.446623
18 -1.768245 1.402921
19 -1.519361 1.492462
20 2.502577 0.540637
EOF