NAME: distribution-uniform_generation_type-euclidean_city_size-30_range-85.0_mutation_type-random_sampling_generation-85_iteration-105492.0
TYPE: TSP
DIMENSION: 30
EDGE_WEIGHT_TYPE: EUC_2D
COMMENT: Generation 85, Iteration 105492.0
NODE_COORD_SECTION
1 -6.334621 4.626642
2 6.536716 9.396702
3 11.771947 -4.000700
4 -0.778952 8.923027
5 -3.051788 -12.100076
6 6.875663 -8.428231
7 9.051851 1.451443
8 -11.785508 -2.003787
9 5.132664 -3.090335
10 6.213364 2.229120
11 7.003012 12.255732
12 7.125554 -12.750682
13 3.149993 1.551215
14 -0.412949 1.374264
15 5.519824 -2.100518
16 2.256009 6.175894
17 -8.311235 -4.197987
18 -5.051013 4.655928
19 -9.440983 -6.984675
20 10.451440 -1.996280
21 -11.117874 -9.487425
22 -3.730951 -5.207241
23 -10.299777 7.924668
24 -2.772886 -1.294424
25 -7.710082 5.177647
26 0.338750 -2.756478
27 -0.199186 -7.122449
28 6.795504 0.652040
29 -3.985602 8.392950
30 -3.238888 8.734015
EOF