NAME: distribution-uniform_generation_type-euclidean_city_size-20_range-10.0_mutation_type-random_sampling_generation-49_iteration-89.0
TYPE: TSP
DIMENSION: 20
EDGE_WEIGHT_TYPE: EUC_2D
COMMENT: Generation 49, Iteration 89.0
NODE_COORD_SECTION
1 -0.437530 1.146102
2 -1.664258 0.001893
3 -0.458133 -0.327958
4 -2.821012 -1.953452
5 0.511841 -0.358803
6 -2.555220 2.386659
7 -1.446025 -1.631640
8 1.232749 0.807057
9 1.675192 -0.574410
10 0.718253 -0.487804
11 -1.575635 2.436595
12 1.261037 2.674776
13 1.110892 0.675777
14 -0.259030 0.022856
15 2.054888 -2.255147
16 2.363118 0.700027
17 -2.104855 -1.536477
18 1.857795 1.851123
19 -1.244573 -0.489702
20 1.780505 -3.087472
EOF