NAME: distribution-lognormal_generation_type-euclidean_city_size-20_range-2.0_mutation_type-random_sampling_generation-6_iteration-671057.0
TYPE: TSP
DIMENSION: 20
EDGE_WEIGHT_TYPE: EUC_2D
COMMENT: Generation 6, Iteration 671057.0
NODE_COORD_SECTION
1 -1.517564 0.820127
2 -3.220543 -15.788442
3 -0.476725 0.653922
4 -2.402750 0.935963
5 -1.479516 0.782188
6 -1.664401 0.710485
7 -1.666061 1.677434
8 -0.675578 -1.140244
9 -1.483863 0.769881
10 -2.483461 -0.707850
11 -2.601594 -5.826646
12 -2.275586 0.841459
13 -1.513640 1.966920
14 -2.288540 0.825301
15 -2.206834 0.686409
16 -2.204342 0.689338
17 34.987259 -0.900468
18 -1.869383 0.850558
19 -1.719856 1.051483
20 -1.237021 11.102181
EOF