NAME: distribution-uniform_generation_type-euclidean_city_size-20_range-15.0_mutation_type-random_sampling_generation-14_iteration-95.0
TYPE: TSP
DIMENSION: 20
EDGE_WEIGHT_TYPE: EUC_2D
COMMENT: Generation 14, Iteration 95.0
NODE_COORD_SECTION
1 -3.014526 -2.438558
2 0.069198 0.384947
3 -1.948151 -2.362711
4 -0.309870 0.491920
5 -0.907081 0.779849
6 -0.309870 0.491920
7 1.875754 -1.053308
8 2.390315 1.553633
9 2.287135 -1.431272
10 -1.260458 0.306697
11 -0.622004 1.266012
12 0.810690 3.160258
13 -1.193647 -0.013013
14 1.777001 -1.395466
15 0.484179 0.577298
16 0.273659 -0.149142
17 1.991905 -2.189248
18 -2.032281 2.403637
19 -1.195891 -0.477950
20 0.833941 0.094498
EOF