NAME: distribution-uniform_generation_type-euclidean_city_size-30_range-75.0_mutation_type-random_sampling_generation-22_iteration-126696.0
TYPE: TSP
DIMENSION: 30
EDGE_WEIGHT_TYPE: EUC_2D
COMMENT: Generation 22, Iteration 126696.0
NODE_COORD_SECTION
1 -8.530181 2.692265
2 6.737293 -2.326897
3 -6.722735 -8.425559
4 -8.196165 -4.500232
5 5.005381 -9.443172
6 -7.732570 -8.173444
7 7.105675 -2.363102
8 0.286421 -2.147055
9 4.623527 9.152481
10 11.300280 -1.161736
11 -1.147699 4.050155
12 -9.050688 10.247986
13 1.080552 0.957376
14 0.526872 -8.184205
15 -13.730797 -0.765599
16 5.029983 -6.705124
17 1.014849 9.771416
18 0.320802 -0.473120
19 3.183485 4.522240
20 -5.379525 -2.017876
21 -1.860948 10.338571
22 -8.409906 1.235332
23 2.861594 -3.791220
24 -2.677970 7.766466
25 8.887704 6.719427
26 1.834694 -7.030652
27 11.202096 1.035887
28 0.612194 -8.582772
29 -1.515285 2.269543
30 3.341070 5.332622
EOF