NAME: distribution-uniform_generation_type-euclidean_city_size-20_range-90.0_mutation_type-random_sampling_generation-23_iteration-100.0
TYPE: TSP
DIMENSION: 20
EDGE_WEIGHT_TYPE: EUC_2D
COMMENT: Generation 23, Iteration 100.0
NODE_COORD_SECTION
1 1.019278 8.777411
2 7.849587 10.131610
3 -0.490475 -7.125190
4 -8.868775 -1.631436
5 -9.609037 -9.940950
6 16.805968 2.711073
7 3.841932 -4.073071
8 -0.641424 -2.887215
9 9.480011 -9.261635
10 2.051415 0.750930
11 -15.695074 8.626469
12 -0.114093 9.245008
13 -3.056622 0.627584
14 -14.141834 0.530203
15 1.957944 -15.229580
16 6.032754 -9.979702
17 -10.521581 -8.915592
18 13.177467 -2.670081
19 -9.724708 14.380740
20 10.647267 15.933422
EOF