NAME: distribution-lognormal_generation_type-euclidean_city_size-20_range-2.0_mutation_type-random_sampling_generation-74_iteration-254207.0
TYPE: TSP
DIMENSION: 20
EDGE_WEIGHT_TYPE: EUC_2D
COMMENT: Generation 74, Iteration 254207.0
NODE_COORD_SECTION
1 0.124217 -0.962394
2 -1.565982 -1.629626
3 -0.428720 -1.443025
4 -1.703048 -1.824370
5 -3.009225 -2.197573
6 -0.811302 -0.788583
7 -0.758182 -2.096953
8 27.377257 1.229533
9 -0.955943 -0.979767
10 -1.278376 0.171801
11 -1.723465 -1.865836
12 -1.661830 0.795678
13 -2.056696 -2.227178
14 -3.237657 19.999544
15 -1.671538 -1.977649
16 -0.943759 -2.235037
17 -1.749576 -2.022952
18 -1.065041 -1.184958
19 -1.334904 2.832624
20 -1.546230 -1.593280
EOF