NAME: distribution-uniform_generation_type-euclidean_city_size-30_range-95.0_mutation_type-random_sampling_generation-95_iteration-122183.0
TYPE: TSP
DIMENSION: 30
EDGE_WEIGHT_TYPE: EUC_2D
COMMENT: Generation 95, Iteration 122183.0
NODE_COORD_SECTION
1 13.769212 -1.499982
2 7.653271 9.968216
3 3.162193 -3.162914
4 2.165545 -4.375308
5 2.491179 10.374342
6 -5.251161 6.378382
7 -6.479175 -11.369266
8 -5.772836 3.822108
9 -14.152452 -10.689643
10 14.326466 -4.378106
11 -0.232800 5.970685
12 -4.816558 -1.178380
13 -4.648883 -17.410119
14 -0.702745 8.250818
15 12.091390 8.735264
16 -1.674783 3.473802
17 -14.402298 8.929187
18 -9.244566 9.024020
19 -2.885774 -6.500297
20 -3.493616 9.173233
21 -12.374353 -5.771072
22 5.711912 -5.514367
23 -2.505507 2.151327
24 5.002922 -3.723689
25 13.477821 -0.767197
26 3.987137 5.401424
27 -10.649378 5.266038
28 12.421317 -7.146917
29 2.607799 0.365422
30 0.418721 -13.797012
EOF