NAME: distribution-uniform_generation_type-euclidean_city_size-20_range-50.0_mutation_type-random_sampling_generation-49_iteration-97.0
TYPE: TSP
DIMENSION: 20
EDGE_WEIGHT_TYPE: EUC_2D
COMMENT: Generation 49, Iteration 97.0
NODE_COORD_SECTION
1 5.196787 -1.035636
2 4.604516 2.730090
3 2.265112 -0.527073
4 -6.651804 -5.939394
5 -11.624759 8.215175
6 1.257624 0.544652
7 7.941907 3.667075
8 5.400023 4.185515
9 3.453675 -4.975453
10 3.544077 -5.431491
11 1.757074 8.026796
12 4.702213 -5.933757
13 -1.400300 -5.151710
14 -3.631867 6.979899
15 -1.403234 1.285682
16 -7.883002 0.294355
17 1.354488 3.003417
18 2.683728 0.204200
19 -5.213916 0.908909
20 -6.352340 -11.051252
EOF