NAME: distribution-lognormal_generation_type-euclidean_city_size-20_range-0.6_mutation_type-random_sampling_generation-23_iteration-104.0
TYPE: TSP
DIMENSION: 20
EDGE_WEIGHT_TYPE: EUC_2D
COMMENT: Generation 23, Iteration 104.0
NODE_COORD_SECTION
1 -1.412729 0.909337
2 0.535569 3.893232
3 -2.822556 -2.844986
4 -0.574891 -1.086225
5 5.862162 -2.012339
6 -0.475220 -0.646347
7 3.134020 2.374704
8 -0.838980 1.504018
9 -1.711985 -3.686475
10 -1.658744 1.346003
11 -2.183471 0.083920
12 -1.327781 0.628672
13 -0.919135 0.058464
14 -0.998327 0.931133
15 -0.121711 2.312767
16 3.491289 -2.483998
17 1.266202 -0.850316
18 0.217997 -1.882606
19 -1.140372 -0.632065
20 1.678661 2.083107
EOF