NAME: distribution-uniform_generation_type-euclidean_city_size-30_range-95.0_mutation_type-random_sampling_generation-3_iteration-125045.0
TYPE: TSP
DIMENSION: 30
EDGE_WEIGHT_TYPE: EUC_2D
COMMENT: Generation 3, Iteration 125045.0
NODE_COORD_SECTION
1 -15.610947 8.766313
2 -5.837041 -12.125561
3 -9.559525 -7.492968
4 3.724828 9.241173
5 -1.962011 -13.105370
6 -4.088322 7.786601
7 9.519294 -3.151646
8 -0.227887 -1.096828
9 -4.077286 -5.637151
10 -9.598215 -10.644426
11 7.724336 -9.718301
12 -4.800874 1.887442
13 8.527564 -0.645096
14 -3.289401 -5.325631
15 17.510107 -5.200444
16 -3.871180 -0.179614
17 6.159754 -6.518451
18 12.340040 -1.584179
19 8.115663 2.077087
20 2.881653 12.744737
21 4.333233 11.531998
22 5.646711 13.667365
23 11.738823 -0.941191
24 -1.010709 -1.290219
25 -7.479488 13.661529
26 0.333157 -0.582608
27 -7.737867 5.209196
28 -13.814001 -1.312748
29 3.395118 3.739392
30 -8.985531 -3.760402
EOF