NAME: distribution-uniform_generation_type-euclidean_city_size-20_range-20.0_mutation_type-random_sampling_generation-70_iteration-93.0
TYPE: TSP
DIMENSION: 20
EDGE_WEIGHT_TYPE: EUC_2D
COMMENT: Generation 70, Iteration 93.0
NODE_COORD_SECTION
1 -1.459850 -0.789427
2 -3.856681 2.919334
3 1.233338 5.440643
4 -0.667703 -3.033937
5 3.762305 -1.101921
6 -1.518353 1.548445
7 -2.542714 -2.117610
8 -2.447874 -0.823254
9 3.299931 -1.794694
10 0.538243 -0.776824
11 2.861331 -2.294460
12 -3.074279 -1.103436
13 -2.621646 1.866919
14 -0.985988 -3.243325
15 0.688839 2.605528
16 -1.492262 -1.416426
17 1.603452 3.125972
18 0.886001 -0.890233
19 1.859139 1.853261
20 3.934771 0.025448
EOF