NAME: distribution-lognormal_generation_type-euclidean_city_size-20_range-2.8_mutation_type-random_sampling_generation-19_iteration-622704.0
TYPE: TSP
DIMENSION: 20
EDGE_WEIGHT_TYPE: EUC_2D
COMMENT: Generation 19, Iteration 622704.0
NODE_COORD_SECTION
1 5.441862 -0.533705
2 5.221764 -1.229774
3 5.396475 -0.122230
4 5.185026 -1.231226
5 4.255182 0.071422
6 5.467601 -0.760895
7 5.462868 -0.744694
8 5.454613 -0.722122
9 5.450819 -0.774243
10 5.249853 -1.757404
11 5.465827 -0.766369
12 6.158273 -0.337740
13 5.474885 -0.816979
14 5.476118 -0.826942
15 5.456342 0.357519
16 5.471672 -0.789130
17 5.465827 -0.766369
18 5.717738 12.963868
19 5.235692 -1.252598
20 -102.508437 0.039611
EOF