NAME: distribution-uniform_generation_type-euclidean_city_size-20_range-25.0_mutation_type-random_sampling_generation-15_iteration-104.0
TYPE: TSP
DIMENSION: 20
EDGE_WEIGHT_TYPE: EUC_2D
COMMENT: Generation 15, Iteration 104.0
NODE_COORD_SECTION
1 -0.324838 -0.384763
2 4.365049 -0.278685
3 1.833920 3.130361
4 0.974649 -0.449361
5 -4.238465 -1.565769
6 -1.890346 -1.721085
7 4.666938 1.635521
8 -1.902777 -2.949546
9 3.886366 -2.381411
10 0.179089 -4.006875
11 -2.425830 -1.191062
12 -4.549022 0.646097
13 -3.091381 2.691221
14 2.032928 -0.469177
15 -1.752485 5.110710
16 -2.926424 -0.409334
17 2.598430 -1.699358
18 0.586818 -2.141915
19 0.665539 4.735382
20 1.311842 1.699046
EOF