NAME: distribution-lognormal_generation_type-euclidean_city_size-20_range-2.2_mutation_type-random_sampling_generation-78_iteration-237772.0
TYPE: TSP
DIMENSION: 20
EDGE_WEIGHT_TYPE: EUC_2D
COMMENT: Generation 78, Iteration 237772.0
NODE_COORD_SECTION
1 -1.755723 1.272426
2 -1.499087 2.066178
3 -1.675749 0.001461
4 -1.775618 1.310215
5 -1.536713 1.881034
6 -1.633172 2.263206
7 -2.067884 2.442054
8 -1.588227 2.206733
9 -4.790053 -27.330995
10 -1.443670 2.000036
11 -1.694234 1.175868
12 -1.622063 2.247934
13 -2.685892 2.022993
14 -2.281600 1.800503
15 -2.966433 2.939593
16 -2.355181 1.883702
17 -2.161136 1.103071
18 0.771136 1.424887
19 34.899983 -2.168518
20 -0.138685 -0.542380
EOF