NAME: distribution-uniform_generation_type-euclidean_city_size-20_range-15.0_mutation_type-random_sampling_generation-7_iteration-92.0
TYPE: TSP
DIMENSION: 20
EDGE_WEIGHT_TYPE: EUC_2D
COMMENT: Generation 7, Iteration 92.0
NODE_COORD_SECTION
1 2.068286 1.075844
2 3.231994 -0.963523
3 2.641438 -1.179359
4 -1.467133 -1.315310
5 0.453001 -0.250563
6 -0.399827 -0.881201
7 -2.287809 0.365359
8 0.858175 -0.276228
9 0.427295 -1.104796
10 -1.152254 -3.472440
11 0.519737 -0.122853
12 0.943964 2.721172
13 -1.861731 0.180863
14 0.007236 1.590341
15 -1.370570 0.684083
16 -2.171929 -0.279455
17 -1.741351 3.217108
18 -0.107085 -1.571564
19 2.432828 1.326320
20 -1.024265 0.256204
EOF