NAME: distribution-uniform_generation_type-euclidean_city_size-30_range-65.0_mutation_type-random_sampling_generation-13_iteration-191695.0
TYPE: TSP
DIMENSION: 30
EDGE_WEIGHT_TYPE: EUC_2D
COMMENT: Generation 13, Iteration 191695.0
NODE_COORD_SECTION
1 1.734032 -7.971026
2 6.353925 -9.122922
3 -11.353644 5.407203
4 4.711869 2.178249
5 -0.365578 10.603073
6 5.422291 0.589750
7 12.546480 -1.834148
8 -7.935827 -8.956743
9 5.393658 -2.056451
10 0.406228 7.909083
11 -6.626396 -5.541815
12 2.135459 0.369581
13 5.679646 4.803670
14 -6.187195 2.373088
15 2.314653 5.025121
16 -2.622293 4.268943
17 -4.840807 -6.550616
18 -5.915623 -0.909842
19 -8.412687 3.762757
20 0.531516 -2.712071
21 -1.767830 -4.063275
22 9.066674 4.662711
23 0.757702 -3.907775
24 0.234464 -7.826654
25 5.390810 4.634533
26 -0.599474 5.572415
27 -6.090231 5.010507
28 -2.587347 -0.580959
29 2.118679 -3.616374
30 0.506846 -1.520012
EOF