NAME: distribution-uniform_generation_type-euclidean_city_size-30_range-70.0_mutation_type-random_sampling_generation-69_iteration-150698.0
TYPE: TSP
DIMENSION: 30
EDGE_WEIGHT_TYPE: EUC_2D
COMMENT: Generation 69, Iteration 150698.0
NODE_COORD_SECTION
1 7.815573 -6.730348
2 5.388044 3.847505
3 1.044985 -8.613919
4 2.040839 10.839689
5 8.702498 -0.787104
6 -8.432570 0.151497
7 0.971026 3.747848
8 1.139755 -6.127136
9 -0.105780 0.295262
10 0.708019 -15.575038
11 2.958525 5.884024
12 5.507088 -7.491318
13 8.056624 -3.495111
14 -0.404686 0.747816
15 2.706488 7.190029
16 0.665752 7.077122
17 -7.277239 -5.396899
18 -5.888938 0.335311
19 5.907760 0.191438
20 -15.739762 2.002322
21 6.339894 0.333964
22 -9.645779 -3.837616
23 0.790924 2.368458
24 8.304533 5.835956
25 -6.714692 -4.336506
26 -7.429424 5.880013
27 -7.275629 0.477169
28 -0.142523 11.800867
29 -2.210200 -1.677513
30 2.218895 -4.937781
EOF