NAME: distribution-uniform_generation_type-euclidean_city_size-30_range-85.0_mutation_type-random_sampling_generation-2_iteration-100321.0
TYPE: TSP
DIMENSION: 30
EDGE_WEIGHT_TYPE: EUC_2D
COMMENT: Generation 2, Iteration 100321.0
NODE_COORD_SECTION
1 6.003320 -11.295923
2 6.992375 1.970641
3 7.046146 8.497706
4 -1.467953 -6.792893
5 14.647454 0.909893
6 3.606836 9.486794
7 -2.633481 -2.026211
8 -3.916375 6.458701
9 -12.928065 6.297535
10 -6.832693 -0.805464
11 -0.605486 -15.482627
12 -7.883918 -2.421779
13 -3.805398 2.155321
14 2.587068 3.927783
15 -2.769899 -12.275119
16 5.952810 8.052212
17 -0.832052 -10.417736
18 15.960189 -0.105134
19 -5.135554 2.950555
20 -2.791799 4.907476
21 -11.331284 5.853499
22 10.191839 -0.409165
23 -11.359979 1.094526
24 -0.881518 4.419360
25 0.390212 -7.621002
26 -6.237005 -6.320874
27 -2.437679 7.491414
28 6.371193 -2.196874
29 4.635398 5.150047
30 -0.534702 -1.452663
EOF