NAME: distribution-lognormal_generation_type-euclidean_city_size-20_range-2.8_mutation_type-random_sampling_generation-20_iteration-479106.0
TYPE: TSP
DIMENSION: 20
EDGE_WEIGHT_TYPE: EUC_2D
COMMENT: Generation 20, Iteration 479106.0
NODE_COORD_SECTION
1 -2.265325 0.013139
2 -2.675067 20.702123
3 -2.095884 0.016690
4 -1.694693 0.011285
5 -1.775084 -0.740584
6 -0.168355 0.017033
7 -2.192258 0.024518
8 40.569951 -0.025736
9 -2.258462 0.012796
10 -2.168012 0.052470
11 -2.228940 0.009466
12 -2.532543 0.159357
13 -2.191820 0.024426
14 -2.485751 -0.767230
15 -2.216592 0.731629
16 -2.244405 0.009663
17 -2.248824 0.009697
18 -2.744746 -20.293136
19 -2.191820 0.024426
20 -2.191369 0.007968
EOF