NAME: distribution-uniform_generation_type-euclidean_city_size-20_range-45.0_mutation_type-random_sampling_generation-10_iteration-79.0
TYPE: TSP
DIMENSION: 20
EDGE_WEIGHT_TYPE: EUC_2D
COMMENT: Generation 10, Iteration 79.0
NODE_COORD_SECTION
1 2.434983 -0.661323
2 -1.165795 1.949258
3 5.722727 -1.755729
4 -8.936194 5.080615
5 -1.537824 -5.425982
6 -1.179402 -4.370143
7 1.556278 4.235739
8 -2.819607 -6.023928
9 -2.277362 4.479737
10 -3.546172 1.835077
11 -4.066371 3.136427
12 -4.238970 -4.738277
13 9.276336 -0.913538
14 5.173623 1.670808
15 -3.255928 1.483108
16 -0.377601 -3.669690
17 3.623529 9.127787
18 6.096898 1.547648
19 1.409726 -6.307080
20 -1.892873 -0.680513
EOF