NAME: distribution-uniform_generation_type-euclidean_city_size-20_range-25.0_mutation_type-random_sampling_generation-11_iteration-52.0
TYPE: TSP
DIMENSION: 20
EDGE_WEIGHT_TYPE: EUC_2D
COMMENT: Generation 11, Iteration 52.0
NODE_COORD_SECTION
1 -2.069747 -0.388745
2 -1.267871 1.621064
3 0.658264 1.544512
4 4.061830 2.228246
5 -0.543630 -5.172203
6 0.185088 2.071561
7 -4.190562 2.347712
8 -0.437265 -3.298643
9 4.399760 0.500467
10 -0.268882 -2.259767
11 -1.630350 1.940637
12 1.794025 2.618296
13 3.244685 -3.442209
14 -3.325691 -1.565254
15 -1.471559 3.018255
16 -1.921403 1.805267
17 4.528335 1.281670
18 -1.608143 0.658104
19 1.840796 -2.547084
20 -1.977682 -2.961885
EOF