NAME: distribution-lognormal_generation_type-euclidean_city_size-20_range-1.8_mutation_type-random_sampling_generation-17_iteration-118337.0
TYPE: TSP
DIMENSION: 20
EDGE_WEIGHT_TYPE: EUC_2D
COMMENT: Generation 17, Iteration 118337.0
NODE_COORD_SECTION
1 -1.324188 1.202682
2 -3.058395 2.761819
3 -1.722281 -0.407890
4 2.680358 -20.236795
5 -1.162826 -0.288999
6 -1.141387 1.006649
7 -0.114441 1.460713
8 -1.394806 1.102275
9 -1.434750 -0.298054
10 -2.136000 0.437896
11 -1.351214 1.170173
12 -2.529789 1.772414
13 -1.050045 0.872624
14 22.509142 3.522207
15 -0.930526 0.931238
16 -1.555849 0.474507
17 -0.788026 0.844476
18 -1.864013 0.623118
19 -1.436398 1.346137
20 -0.194566 1.702810
EOF