NAME: distribution-lognormal_generation_type-euclidean_city_size-20_range-0.6_mutation_type-random_sampling_generation-50_iteration-96.0
TYPE: TSP
DIMENSION: 20
EDGE_WEIGHT_TYPE: EUC_2D
COMMENT: Generation 50, Iteration 96.0
NODE_COORD_SECTION
1 -0.002987 0.508071
2 0.854939 -3.324478
3 -2.389221 0.065800
4 3.285667 -0.621529
5 4.749306 2.006824
6 -3.923850 -0.654164
7 3.131192 -0.224383
8 -2.606329 -2.269542
9 1.911129 -1.719967
10 0.324075 0.639378
11 -0.374991 -2.092951
12 -2.723630 2.903954
13 1.217939 -0.012319
14 1.359237 0.827032
15 -0.229027 0.508033
16 -0.479711 6.311981
17 -1.332337 -1.439011
18 -2.730753 0.777612
19 -0.184014 -1.503932
20 0.143366 -0.686409
EOF