NAME: distribution-uniform_generation_type-euclidean_city_size-30_range-90.0_mutation_type-random_sampling_generation-99_iteration-206364.0
TYPE: TSP
DIMENSION: 30
EDGE_WEIGHT_TYPE: EUC_2D
COMMENT: Generation 99, Iteration 206364.0
NODE_COORD_SECTION
1 5.245805 -0.465080
2 -3.960340 8.833966
3 -1.064609 2.477105
4 7.661234 12.049776
5 -13.458328 -0.474843
6 -0.516522 5.347155
7 5.447621 2.038596
8 0.788742 -0.768780
9 3.247407 -3.229260
10 0.317032 -4.094794
11 -12.869410 -6.733034
12 -3.677689 11.525020
13 3.330954 -8.766327
14 -4.486551 -3.183614
15 -16.172112 -1.690758
16 -0.707756 -13.641529
17 7.554857 -16.357915
18 10.560388 6.604683
19 2.703434 3.547342
20 -11.998394 -7.903573
21 5.789310 6.665030
22 5.743666 11.368980
23 6.227399 -0.677009
24 6.852703 -0.895815
25 3.369547 -10.745425
26 -15.480736 2.067374
27 12.698792 -1.833890
28 4.078912 4.995857
29 5.037921 -8.416238
30 -12.263280 12.357002
EOF