NAME: distribution-lognormal_generation_type-euclidean_city_size-20_range-1.8_mutation_type-random_sampling_generation-85_iteration-754382.0
TYPE: TSP
DIMENSION: 20
EDGE_WEIGHT_TYPE: EUC_2D
COMMENT: Generation 85, Iteration 754382.0
NODE_COORD_SECTION
1 -1.279113 0.847435
2 -1.485890 -0.201207
3 7.720013 -0.509561
4 -1.309956 -0.051928
5 -1.777390 1.680320
6 -2.384090 1.874870
7 -0.662228 1.402625
8 -1.289035 0.988933
9 -0.933097 2.095613
10 -1.383956 1.163498
11 -3.757542 -20.272209
12 -0.883958 1.587392
13 -1.373960 1.150473
14 -1.784960 1.473625
15 -4.350193 4.337771
16 -1.329745 1.145378
17 -1.987822 0.727869
18 -1.127144 0.685380
19 -1.699611 1.095914
20 23.079677 -1.222188
EOF