NAME: distribution-uniform_generation_type-euclidean_city_size-30_range-65.0_mutation_type-random_sampling_generation-77_iteration-165506.0
TYPE: TSP
DIMENSION: 30
EDGE_WEIGHT_TYPE: EUC_2D
COMMENT: Generation 77, Iteration 165506.0
NODE_COORD_SECTION
1 10.556577 -0.944704
2 -1.617404 -4.868892
3 5.175530 -1.297250
4 2.137493 -1.793898
5 0.600005 -3.828868
6 -11.443248 0.090827
7 5.558184 4.347651
8 0.463738 1.551288
9 -12.443770 7.982349
10 2.773391 -5.291558
11 -4.195050 6.381307
12 2.312485 3.522569
13 -0.595810 1.436774
14 -0.436952 0.518117
15 1.363099 -6.106965
16 -4.131201 2.109955
17 6.823321 8.778173
18 0.746083 2.606118
19 -5.434071 1.067192
20 3.737802 -8.684728
21 -2.832670 -4.675794
22 6.041374 0.186076
23 3.481100 14.465771
24 0.892196 -5.323558
25 -10.180415 -7.346899
26 5.515820 3.601046
27 -4.469745 5.167373
28 5.171277 -5.724817
29 -1.437135 -6.087232
30 -4.132002 -1.837422
EOF