NAME: distribution-lognormal_generation_type-euclidean_city_size-20_range-1.6_mutation_type-random_sampling_generation-24_iteration-224404.0
TYPE: TSP
DIMENSION: 20
EDGE_WEIGHT_TYPE: EUC_2D
COMMENT: Generation 24, Iteration 224404.0
NODE_COORD_SECTION
1 -2.134355 -0.755422
2 -1.590469 -1.479506
3 -2.560212 -2.358339
4 -1.160007 -0.493244
5 29.307621 1.156580
6 -2.459264 0.032022
7 -1.864872 -1.241719
8 -1.416085 -2.236391
9 -2.003184 -1.502116
10 -1.223907 -0.698726
11 -3.269767 18.502549
12 -1.997016 -0.435281
13 -0.843348 -1.294565
14 -0.882902 -0.538053
15 1.751026 -1.861938
16 -1.290373 -0.802864
17 -1.984821 -1.454351
18 -1.305535 -0.926848
19 -1.701366 -0.728356
20 -1.371163 -0.883433
EOF