NAME: distribution-lognormal_generation_type-euclidean_city_size-20_range-2.2_mutation_type-random_sampling_generation-58_iteration-125603.0
TYPE: TSP
DIMENSION: 20
EDGE_WEIGHT_TYPE: EUC_2D
COMMENT: Generation 58, Iteration 125603.0
NODE_COORD_SECTION
1 -0.814590 -2.966930
2 -1.209943 -2.106744
3 -2.023939 -2.208832
4 -1.377685 -2.284550
5 -1.649468 -2.835988
6 -0.418549 -2.230697
7 -1.739787 -1.611941
8 -1.973629 -2.107544
9 -1.035269 -1.889097
10 -1.333116 -2.362702
11 -1.251273 -2.169955
12 -2.021752 -2.203682
13 -1.412105 -2.363880
14 -1.897899 -1.937992
15 -11.634793 33.409348
16 -1.654466 -2.974080
17 -1.635363 -2.939040
18 -1.470223 -2.622484
19 38.508864 8.481694
20 -1.955014 -2.074906
EOF