NAME: distribution-lognormal_generation_type-euclidean_city_size-20_range-1.8_mutation_type-random_sampling_generation-20_iteration-152526.0
TYPE: TSP
DIMENSION: 20
EDGE_WEIGHT_TYPE: EUC_2D
COMMENT: Generation 20, Iteration 152526.0
NODE_COORD_SECTION
1 0.981593 -1.174615
2 2.865013 -1.542318
3 2.831582 -1.347804
4 3.571465 -1.846409
5 3.641006 -0.724419
6 3.091050 -1.179515
7 2.946960 -0.716757
8 3.273012 -0.786966
9 3.736436 0.242368
10 3.001763 -0.945084
11 3.661966 2.896786
12 3.101561 -1.223195
13 2.055918 -1.221949
14 3.490911 -1.405416
15 2.924774 -0.690918
16 3.923299 -2.606954
17 3.376025 -1.160061
18 0.318881 17.221648
19 3.040749 -1.013874
20 -55.833965 -0.774547
EOF