NAME: distribution-uniform_generation_type-euclidean_city_size-30_range-85.0_mutation_type-random_sampling_generation-80_iteration-101881.0
TYPE: TSP
DIMENSION: 30
EDGE_WEIGHT_TYPE: EUC_2D
COMMENT: Generation 80, Iteration 101881.0
NODE_COORD_SECTION
1 1.505698 -6.690785
2 -11.095812 0.372136
3 -9.716601 -5.716537
4 -10.808184 -3.384903
5 -4.025033 -3.199361
6 -8.170207 1.113514
7 -6.750127 6.528700
8 4.132186 2.074866
9 13.961049 -1.054741
10 -7.393866 1.151331
11 3.094622 -7.725355
12 7.077212 16.947679
13 10.576447 7.527082
14 7.607978 -3.348551
15 4.794597 4.749438
16 8.411475 -8.102939
17 -2.841990 1.735027
18 8.606792 3.440479
19 1.157120 -18.334576
20 -2.942155 -0.874547
21 3.501580 5.251986
22 -8.531663 -2.204325
23 0.023508 -5.758365
24 7.429813 -4.798055
25 -11.835555 9.685128
26 -1.331588 6.488055
27 4.925160 -3.288843
28 0.101551 10.852491
29 0.229228 -1.383968
30 -1.693237 -2.052060
EOF