NAME: distribution-lognormal_generation_type-euclidean_city_size-20_range-0.4_mutation_type-random_sampling_generation-96_iteration-98.0
TYPE: TSP
DIMENSION: 20
EDGE_WEIGHT_TYPE: EUC_2D
COMMENT: Generation 96, Iteration 98.0
NODE_COORD_SECTION
1 -0.648831 -0.298568
2 -2.190350 -0.966382
3 -0.930808 -1.622388
4 0.505542 0.414423
5 2.712173 -3.684187
6 1.833455 2.062955
7 -0.020667 0.153395
8 0.680172 1.079339
9 -0.381402 0.063767
10 -0.962525 -0.159592
11 -1.268160 -0.069219
12 -0.077002 1.814958
13 -0.268065 1.325367
14 -1.328204 0.317744
15 0.897944 1.140461
16 1.021595 0.811215
17 0.622944 -0.227119
18 -1.375816 0.630069
19 2.821467 -0.733441
20 -1.643462 -2.052795
EOF