NAME: distribution-uniform_generation_type-euclidean_city_size-20_range-25.0_mutation_type-random_sampling_generation-8_iteration-63.0
TYPE: TSP
DIMENSION: 20
EDGE_WEIGHT_TYPE: EUC_2D
COMMENT: Generation 8, Iteration 63.0
NODE_COORD_SECTION
1 -4.448972 -2.593283
2 -1.971550 2.628178
3 -1.080176 4.896549
4 -0.963884 3.050096
5 2.786254 0.086060
6 1.503750 -0.031499
7 3.061932 -2.130149
8 -2.764355 -0.246121
9 4.648762 2.191476
10 1.713618 -0.258501
11 -3.568292 -2.091374
12 -1.734614 3.615552
13 1.828101 -2.375630
14 4.707957 -1.997338
15 -1.867683 -3.894800
16 1.439992 -1.930244
17 -2.324612 0.785772
18 -1.892071 -2.474887
19 0.795663 3.939947
20 0.130178 -1.169804
EOF