NAME: distribution-lognormal_generation_type-euclidean_city_size-20_range-0.6_mutation_type-random_sampling_generation-39_iteration-93.0
TYPE: TSP
DIMENSION: 20
EDGE_WEIGHT_TYPE: EUC_2D
COMMENT: Generation 39, Iteration 93.0
NODE_COORD_SECTION
1 -1.267943 1.368222
2 -3.199532 1.413699
3 1.924253 0.384939
4 -0.619720 -0.458625
5 -2.204341 3.986632
6 -1.838730 -0.196884
7 -0.601530 -1.445519
8 1.328653 -1.817784
9 -0.876767 -2.019526
10 -0.951918 0.361482
11 6.954209 1.758601
12 2.444009 -2.834696
13 -1.000501 -1.669161
14 1.371754 4.887355
15 -3.066412 0.084361
16 1.505994 -2.409700
17 -0.426477 -1.688035
18 -1.568400 -0.036158
19 1.925909 1.795827
20 0.167488 -1.465030
EOF