NAME: distribution-uniform_generation_type-euclidean_city_size-30_range-80.0_mutation_type-random_sampling_generation-91_iteration-126812.0
TYPE: TSP
DIMENSION: 30
EDGE_WEIGHT_TYPE: EUC_2D
COMMENT: Generation 91, Iteration 126812.0
NODE_COORD_SECTION
1 -10.252589 2.552421
2 8.903944 11.647664
3 -7.109024 -0.682104
4 -0.731570 -13.853372
5 -5.732750 -3.954247
6 11.340345 9.945702
7 2.084311 3.711629
8 7.739088 -8.634051
9 -2.564181 -1.037355
10 -1.066059 -2.021362
11 6.995744 -5.428728
12 -1.203891 -9.313609
13 1.519759 -0.030128
14 -6.308593 -4.271126
15 3.768301 7.070677
16 -0.277120 -0.798570
17 -4.781362 -0.245638
18 13.555274 -2.463402
19 -7.286252 -2.894910
20 -8.925694 -0.555981
21 3.070427 -3.000345
22 10.818310 -2.961416
23 4.923415 15.095570
24 -8.699809 -3.268353
25 10.833410 -2.866288
26 3.541604 -12.786343
27 -8.236598 4.937142
28 -7.725675 7.129787
29 -6.213439 10.961289
30 -1.979328 8.015447
EOF