NAME: distribution-uniform_generation_type-euclidean_city_size-30_range-60.0_mutation_type-random_sampling_generation-86_iteration-1147699.0
TYPE: TSP
DIMENSION: 30
EDGE_WEIGHT_TYPE: EUC_2D
COMMENT: Generation 86, Iteration 1147699.0
NODE_COORD_SECTION
1 7.244927 -2.348872
2 -0.866546 7.321246
3 -0.038947 -5.473517
4 0.526586 3.703623
5 -0.908345 -2.374916
6 -1.130721 0.270664
7 -0.321666 -0.758214
8 -9.547153 -6.593121
9 1.322348 10.759370
10 -1.186170 2.028323
11 -2.738861 -4.373806
12 9.612832 -4.523381
13 5.002636 -10.151133
14 1.372373 10.111202
15 -7.619978 6.071352
16 -7.746820 2.454828
17 -6.479212 2.054990
18 -1.389328 -1.994964
19 4.435338 -8.822616
20 4.794620 4.136841
21 -10.303052 0.897393
22 3.529465 -0.861200
23 3.201564 -1.826530
24 0.996321 1.563922
25 5.463770 -2.864476
26 11.038952 8.469787
27 -7.526431 -4.521203
28 -3.062821 1.841815
29 -2.405216 -5.334219
30 4.729534 1.136813
EOF