NAME: distribution-uniform_generation_type-euclidean_city_size-20_range-35.0_mutation_type-random_sampling_generation-97_iteration-79.0
TYPE: TSP
DIMENSION: 20
EDGE_WEIGHT_TYPE: EUC_2D
COMMENT: Generation 97, Iteration 79.0
NODE_COORD_SECTION
1 -1.932176 5.984694
2 -1.137176 -6.487523
3 -2.099559 -5.202726
4 -1.568470 5.288496
5 4.899638 1.301123
6 -7.395984 0.202791
7 -3.776938 -1.210256
8 2.084482 -4.898299
9 -2.601098 -0.530316
10 0.788794 3.669536
11 4.090240 -1.590521
12 -0.768174 4.084028
13 -2.479805 -2.406134
14 3.398038 -2.476031
15 1.802002 4.428380
16 1.888784 -2.490736
17 1.593573 2.212679
18 7.158881 -0.576921
19 -5.561800 -0.882903
20 1.616749 1.580639
EOF