NAME: distribution-uniform_generation_type-euclidean_city_size-20_range-25.0_mutation_type-random_sampling_generation-71_iteration-73.0
TYPE: TSP
DIMENSION: 20
EDGE_WEIGHT_TYPE: EUC_2D
COMMENT: Generation 71, Iteration 73.0
NODE_COORD_SECTION
1 0.230142 2.265891
2 -2.139044 0.217890
3 -1.353124 -0.366870
4 -0.826128 0.671531
5 -1.505617 0.154937
6 -2.439351 4.266200
7 1.269105 -1.673633
8 3.587065 1.750782
9 3.135642 -0.294283
10 -5.317510 -1.573159
11 -1.972100 4.814297
12 3.046605 -3.924392
13 2.113182 -1.410627
14 -1.171749 -1.913857
15 1.661374 1.883433
16 -2.637510 -0.326852
17 3.637040 -0.138656
18 -2.193851 -2.734205
19 3.529801 2.547128
20 -0.653972 -4.215554
EOF