NAME: distribution-uniform_generation_type-euclidean_city_size-30_range-80.0_mutation_type-random_sampling_generation-10_iteration-218655.0
TYPE: TSP
DIMENSION: 30
EDGE_WEIGHT_TYPE: EUC_2D
COMMENT: Generation 10, Iteration 218655.0
NODE_COORD_SECTION
1 5.757430 -5.337801
2 2.780278 -2.346262
3 -2.381136 3.038381
4 -10.002044 7.964641
5 8.625987 -1.645363
6 -8.477937 -3.809407
7 3.710243 -14.484209
8 -0.833197 -0.282781
9 6.857931 3.690282
10 -12.069453 -1.118072
11 4.470805 -7.828606
12 -7.961289 8.851979
13 -0.361930 -6.781031
14 6.714887 6.735435
15 6.245743 16.478002
16 5.915293 6.759289
17 -1.778559 -11.855253
18 3.303295 2.028114
19 -6.877257 1.077396
20 -0.800944 -4.576140
21 -3.837461 2.241555
22 7.154006 2.679690
23 -6.126847 -6.004770
24 12.261836 -1.396082
25 -0.966490 -2.078819
26 5.789992 -1.228009
27 -5.830426 11.810558
28 -15.907552 -3.491159
29 1.931968 3.494258
30 2.692829 -2.585817
EOF