NAME: distribution-uniform_generation_type-euclidean_city_size-20_range-70.0_mutation_type-random_sampling_generation-3_iteration-41.0
TYPE: TSP
DIMENSION: 20
EDGE_WEIGHT_TYPE: EUC_2D
COMMENT: Generation 3, Iteration 41.0
NODE_COORD_SECTION
1 6.625042 2.455930
2 -14.315139 -9.301456
3 8.293805 -13.387633
4 11.991154 -4.274176
5 2.979174 -5.378051
6 -2.294475 2.413273
7 4.499042 6.042303
8 6.989024 2.203072
9 -4.588782 5.373755
10 -0.346561 1.006559
11 -10.148063 -5.713146
12 1.336197 15.031742
13 5.349622 2.623543
14 4.065099 -10.108639
15 -6.049923 8.599526
16 -7.140467 6.501956
17 -1.514442 -3.261153
18 -7.339328 -1.527968
19 -6.505070 -2.904446
20 8.114089 3.605010
EOF