NAME: distribution-uniform_generation_type-euclidean_city_size-30_range-95.0_mutation_type-random_sampling_generation-89_iteration-279928.0
TYPE: TSP
DIMENSION: 30
EDGE_WEIGHT_TYPE: EUC_2D
COMMENT: Generation 89, Iteration 279928.0
NODE_COORD_SECTION
1 -15.747806 1.940897
2 2.304300 11.202378
3 -0.384958 -10.326652
4 -3.889744 -4.342999
5 9.297043 6.000862
6 0.055160 -10.305608
7 -7.039059 9.340484
8 0.717506 -8.801266
9 -2.460534 -20.444356
10 4.290663 5.176334
11 12.021090 5.938790
12 11.149283 5.664729
13 4.998598 3.015074
14 -1.229811 13.273241
15 0.155697 -0.819358
16 -13.668407 2.389589
17 -16.568023 6.799907
18 -12.966874 0.419371
19 -2.976153 2.387110
20 0.599397 0.513499
21 8.152573 5.913690
22 -11.534006 2.986664
23 1.822091 -9.632742
24 -0.204990 2.588790
25 10.282859 4.330814
26 9.177525 -5.596254
27 5.444071 -5.344203
28 1.108003 -6.459939
29 -1.850963 -6.469755
30 8.945468 -1.339089
EOF