NAME: distribution-uniform_generation_type-euclidean_city_size-30_range-90.0_mutation_type-random_sampling_generation-16_iteration-258689.0
TYPE: TSP
DIMENSION: 30
EDGE_WEIGHT_TYPE: EUC_2D
COMMENT: Generation 16, Iteration 258689.0
NODE_COORD_SECTION
1 -5.289831 11.668811
2 -7.185189 2.373397
3 9.889051 -2.869865
4 4.116495 5.083521
5 3.911182 -1.096567
6 8.882191 -11.021211
7 -6.151832 -9.338990
8 -1.590660 10.949425
9 -21.943146 -5.846004
10 4.902388 -8.295547
11 6.201147 -13.956330
12 -8.884709 2.257627
13 7.332340 2.516022
14 5.774295 3.278489
15 13.858483 6.254268
16 8.100395 6.294459
17 -5.855143 -3.760453
18 -13.589576 0.309678
19 0.546189 -4.537517
20 7.161793 11.720892
21 4.745995 2.618394
22 -4.735713 1.356730
23 -2.336019 -6.764259
24 3.065510 -3.840999
25 -2.191207 -11.592598
26 -3.984275 -2.447400
27 -4.439305 3.822152
28 3.923037 5.680645
29 3.627102 -7.421067
30 -7.860989 16.604297
EOF