NAME: distribution-uniform_generation_type-euclidean_city_size-30_range-55.0_mutation_type-random_sampling_generation-71_iteration-175237.0
TYPE: TSP
DIMENSION: 30
EDGE_WEIGHT_TYPE: EUC_2D
COMMENT: Generation 71, Iteration 175237.0
NODE_COORD_SECTION
1 0.361479 -6.299987
2 3.287055 3.061304
3 -4.031138 -7.233131
4 2.410672 7.976153
5 5.130532 -7.617184
6 -2.751923 8.260033
7 -0.391247 6.914756
8 2.349329 -0.567255
9 -4.933636 6.200057
10 2.369308 -3.349663
11 1.426076 -2.499597
12 -6.357572 0.415714
13 -5.201800 0.245855
14 -6.948718 3.440665
15 4.094269 -0.687062
16 -7.174958 -0.711401
17 1.882947 -2.003361
18 2.666104 -3.354753
19 1.212916 -2.597859
20 -2.993787 1.148627
21 -5.083891 2.281192
22 0.679157 -8.750902
23 -1.859232 -0.759395
24 7.507678 0.461784
25 3.526776 0.306423
26 11.073696 4.975931
27 -8.711530 -3.665710
28 2.845451 6.844226
29 0.693800 -3.949051
30 2.922188 1.513593
EOF