NAME: distribution-lognormal_generation_type-euclidean_city_size-20_range-0.4_mutation_type-random_sampling_generation-70_iteration-82.0
TYPE: TSP
DIMENSION: 20
EDGE_WEIGHT_TYPE: EUC_2D
COMMENT: Generation 70, Iteration 82.0
NODE_COORD_SECTION
1 -2.133658 -2.752062
2 -0.661163 -1.282538
3 -1.616831 0.147803
4 0.082163 -0.173234
5 0.344723 -1.679214
6 -0.829102 -3.004105
7 2.038853 -0.462589
8 0.331118 1.295301
9 1.776986 0.019311
10 0.589903 -0.701426
11 0.307010 -0.299796
12 -0.065949 1.353794
13 1.032538 -0.042376
14 -1.050685 0.901334
15 0.750668 1.777837
16 -0.909115 1.333313
17 -0.301018 1.262910
18 -0.986368 2.151557
19 4.034311 -0.518744
20 -2.734384 0.672924
EOF