NAME: distribution-lognormal_generation_type-euclidean_city_size-20_range-2.2_mutation_type-random_sampling_generation-38_iteration-143394.0
TYPE: TSP
DIMENSION: 20
EDGE_WEIGHT_TYPE: EUC_2D
COMMENT: Generation 38, Iteration 143394.0
NODE_COORD_SECTION
1 3.154145 1.198636
2 3.719364 4.280029
3 3.234458 1.369418
4 3.231471 1.363397
5 3.147361 1.185367
6 3.244522 1.388247
7 3.234032 1.368559
8 5.106661 -27.284646
9 -2.937252 1.074167
10 3.178755 1.247060
11 4.005513 1.866677
12 3.867737 1.656419
13 -59.672586 -0.824262
14 3.956111 1.648647
15 3.234458 1.369418
16 3.168277 1.226977
17 3.527379 1.973931
18 3.195257 1.292650
19 3.231471 1.363397
20 3.172867 1.235912
EOF