NAME: distribution-uniform_generation_type-euclidean_city_size-30_range-100.0_mutation_type-random_sampling_generation-71_iteration-210319.0
TYPE: TSP
DIMENSION: 30
EDGE_WEIGHT_TYPE: EUC_2D
COMMENT: Generation 71, Iteration 210319.0
NODE_COORD_SECTION
1 -4.039522 0.430915
2 4.690434 -5.484535
3 -1.144149 2.472870
4 -6.399390 -14.903506
5 -2.458649 8.130100
6 11.304522 11.392478
7 -6.760888 -10.022625
8 11.313490 -4.943668
9 -8.094691 5.912786
10 -7.378505 -12.672647
11 0.060780 -11.076049
12 -6.962910 -10.790496
13 -16.476525 1.174615
14 -2.713734 3.788908
15 1.625552 0.118757
16 -3.418274 -0.207113
17 14.917528 5.513607
18 0.071183 9.954742
19 -3.837564 -3.668905
20 -0.966027 -11.044651
21 -0.934589 1.649435
22 9.530413 -4.167273
23 -7.676905 5.918590
24 -3.871474 3.902927
25 20.177948 0.108375
26 19.285300 -8.256359
27 -3.668481 16.099473
28 8.050624 4.900518
29 -6.581903 13.373537
30 -7.643594 2.395196
EOF