NAME: distribution-uniform_generation_type-euclidean_city_size-30_range-30.0_mutation_type-random_sampling_generation-17_iteration-228020.0
TYPE: TSP
DIMENSION: 30
EDGE_WEIGHT_TYPE: EUC_2D
COMMENT: Generation 17, Iteration 228020.0
NODE_COORD_SECTION
1 -2.136891 2.423065
2 -0.038347 5.078900
3 -2.402540 2.431897
4 3.877421 -0.808701
5 0.482852 -1.747903
6 -7.953929 0.467023
7 -3.127616 -4.090446
8 2.041620 -0.583795
9 -3.626206 -0.536728
10 2.558111 -4.452379
11 -3.901119 -0.113702
12 -0.650043 0.375656
13 1.048915 2.337682
14 1.983287 -1.852363
15 1.197091 -3.653712
16 6.149199 2.371840
17 2.780069 -2.317087
18 -0.698005 3.967470
19 3.101898 2.064404
20 -0.765788 -1.673574
21 0.439016 -1.580081
22 -0.830444 -2.905221
23 -1.702120 0.475138
24 0.429171 -3.857692
25 -3.199751 -2.339755
26 1.597271 -4.026067
27 -1.115645 3.564002
28 -1.835929 2.882064
29 0.485912 5.451173
30 5.812540 2.648892
EOF