NAME: distribution-lognormal_generation_type-euclidean_city_size-20_range-0.8_mutation_type-random_sampling_generation-71_iteration-80.0
TYPE: TSP
DIMENSION: 20
EDGE_WEIGHT_TYPE: EUC_2D
COMMENT: Generation 71, Iteration 80.0
NODE_COORD_SECTION
1 -0.529806 0.441107
2 0.541294 5.527314
3 -0.513901 0.466746
4 -1.351853 -1.626054
5 1.693170 2.394339
6 -0.264270 -1.106796
7 1.029399 -1.669611
8 -0.620819 -4.937935
9 -1.006151 -1.072569
10 -2.692056 -1.456674
11 1.069119 3.099784
12 -1.971830 2.058888
13 -2.782717 -1.387133
14 -2.518996 -1.356913
15 -0.568437 3.343568
16 11.020703 -1.179465
17 -1.047184 2.632955
18 0.630919 -4.103414
19 0.656085 -1.225013
20 -0.772668 1.156877
EOF