NAME: distribution-lognormal_generation_type-euclidean_city_size-20_range-2.0_mutation_type-random_sampling_generation-63_iteration-119512.0
TYPE: TSP
DIMENSION: 20
EDGE_WEIGHT_TYPE: EUC_2D
COMMENT: Generation 63, Iteration 119512.0
NODE_COORD_SECTION
1 6.503549 1.704328
2 6.611960 1.248068
3 6.596256 1.153978
4 6.605776 1.216348
5 6.589271 1.119031
6 6.611361 1.244398
7 6.443206 1.335247
8 -125.375796 -0.046553
9 6.606375 1.220114
10 6.609562 1.233123
11 6.503549 1.704328
12 6.609562 1.233123
13 6.596256 1.153978
14 6.861505 -21.708944
15 6.611189 0.202423
16 6.589271 1.119031
17 6.594862 1.146060
18 6.609562 1.233123
19 6.611361 1.244398
20 6.611361 1.244398
EOF