NAME: distribution-lognormal_generation_type-euclidean_city_size-20_range-0.6_mutation_type-random_sampling_generation-38_iteration-56.0
TYPE: TSP
DIMENSION: 20
EDGE_WEIGHT_TYPE: EUC_2D
COMMENT: Generation 38, Iteration 56.0
NODE_COORD_SECTION
1 2.076113 1.563321
2 1.073748 3.398424
3 -3.735924 1.817642
4 -3.765837 -0.148880
5 0.389382 -3.273335
6 -2.267179 -0.131260
7 1.477509 -3.675105
8 -0.505380 0.693340
9 1.447797 -1.972215
10 1.421042 0.186617
11 -0.745547 -1.027314
12 -0.534071 1.314582
13 -1.349973 -2.608451
14 -1.100526 0.701949
15 2.339592 -0.765278
16 -1.983327 -1.045380
17 3.967800 -0.989702
18 1.830979 3.710670
19 -1.401485 0.127358
20 1.365286 2.123018
EOF