NAME: distribution-uniform_generation_type-euclidean_city_size-20_range-25.0_mutation_type-random_sampling_generation-44_iteration-100.0
TYPE: TSP
DIMENSION: 20
EDGE_WEIGHT_TYPE: EUC_2D
COMMENT: Generation 44, Iteration 100.0
NODE_COORD_SECTION
1 3.384074 -2.438356
2 -3.002515 0.663424
3 -1.032727 1.218894
4 -3.075702 -0.470264
5 0.821696 1.689070
6 -1.635921 0.589229
7 -3.777046 1.831861
8 2.342668 -3.748737
9 -0.092317 -0.606510
10 -1.277968 0.148544
11 3.670731 -3.952955
12 -2.158164 -0.663245
13 1.272423 -1.298398
14 2.873988 2.098113
15 3.708388 1.722890
16 2.061878 4.999258
17 -2.331799 -3.972830
18 1.007937 4.603434
19 0.994483 -1.156808
20 -3.754108 -1.256615
EOF