NAME: distribution-lognormal_generation_type-euclidean_city_size-20_range-0.6_mutation_type-random_sampling_generation-48_iteration-61.0
TYPE: TSP
DIMENSION: 20
EDGE_WEIGHT_TYPE: EUC_2D
COMMENT: Generation 48, Iteration 61.0
NODE_COORD_SECTION
1 2.298141 -0.221948
2 -1.912383 1.149941
3 -0.239150 0.734687
4 -0.422571 0.787641
5 -0.288685 0.958538
6 4.047027 -1.927848
7 1.388540 -2.845740
8 1.537448 -1.756886
9 2.308310 -2.175943
10 -2.994504 -1.778171
11 -0.524865 -1.686979
12 3.652166 3.957367
13 -0.218816 0.676037
14 0.721021 -2.301439
15 -0.496494 -0.696179
16 -4.181414 -1.210012
17 -3.381856 0.829949
18 -1.902439 0.030932
19 0.665435 2.758239
20 -0.054911 4.717814
EOF