NAME: distribution-uniform_generation_type-euclidean_city_size-30_range-70.0_mutation_type-random_sampling_generation-59_iteration-395839.0
TYPE: TSP
DIMENSION: 30
EDGE_WEIGHT_TYPE: EUC_2D
COMMENT: Generation 59, Iteration 395839.0
NODE_COORD_SECTION
1 -0.836353 7.801792
2 -15.137691 -0.974518
3 6.959355 5.053767
4 8.526007 -0.215745
5 -1.083621 -12.597688
6 -4.093382 -4.392977
7 -7.345020 -2.439643
8 7.046353 -5.442769
9 -8.724744 13.815136
10 3.640527 3.661764
11 1.921511 11.164915
12 6.890328 6.758040
13 -2.800657 -7.168411
14 -2.358102 4.779513
15 1.154056 6.731235
16 -5.598567 0.468030
17 10.673438 -1.730920
18 0.260394 -5.186095
19 4.854526 -4.884675
20 7.415616 6.835661
21 2.050228 -1.356089
22 5.558184 -0.697163
23 -4.792864 -4.221882
24 0.877207 -4.073266
25 3.585829 -4.187494
26 -7.149534 -2.764377
27 -10.140228 -0.359792
28 -3.034452 3.515284
29 4.674239 -8.612944
30 -2.992583 0.721313
EOF