NAME: distribution-uniform_generation_type-euclidean_city_size-30_range-90.0_mutation_type-random_sampling_generation-21_iteration-99024.0
TYPE: TSP
DIMENSION: 30
EDGE_WEIGHT_TYPE: EUC_2D
COMMENT: Generation 21, Iteration 99024.0
NODE_COORD_SECTION
1 -1.507205 12.160557
2 6.560671 1.709380
3 -7.415202 -0.063045
4 4.568589 -0.507969
5 -7.849220 -0.540316
6 -5.368375 7.551718
7 5.259518 -10.435027
8 -9.409141 -4.066983
9 5.725198 -5.171177
10 6.157007 -1.456481
11 -11.679426 -7.311004
12 1.659664 -4.270215
13 5.868680 -4.737240
14 8.247460 -2.805326
15 11.066371 4.587825
16 -17.933900 -0.075136
17 3.041472 -7.190923
18 0.691885 3.328410
19 -8.191325 5.709602
20 0.438871 -2.442201
21 0.187968 -19.102675
22 -4.911692 12.751347
23 -7.142520 -0.637244
24 11.529129 -6.817771
25 -12.829101 -4.936411
26 13.632005 0.680148
27 7.015749 18.608412
28 -2.038851 0.166555
29 0.555083 10.379910
30 4.070639 4.933278
EOF