NAME: distribution-lognormal_generation_type-euclidean_city_size-20_range-0.6_mutation_type-random_sampling_generation-74_iteration-96.0
TYPE: TSP
DIMENSION: 20
EDGE_WEIGHT_TYPE: EUC_2D
COMMENT: Generation 74, Iteration 96.0
NODE_COORD_SECTION
1 1.219730 0.685691
2 0.828720 -0.278687
3 2.106764 -1.815174
4 -0.469241 -0.260781
5 -2.101424 0.202307
6 -0.468956 1.280777
7 2.396590 1.100289
8 -0.286595 -0.468715
9 -6.432164 1.073265
10 1.607205 -0.382151
11 2.034467 1.179671
12 -1.726973 0.894710
13 -0.803613 -5.100756
14 1.445041 4.370053
15 -1.525261 -2.627660
16 3.139648 -0.452567
17 -0.174502 -1.029213
18 -0.844335 -0.256049
19 -1.090928 3.372278
20 1.145826 -1.487289
EOF