NAME: distribution-lognormal_generation_type-euclidean_city_size-20_range-1.8_mutation_type-random_sampling_generation-36_iteration-211883.0
TYPE: TSP
DIMENSION: 20
EDGE_WEIGHT_TYPE: EUC_2D
COMMENT: Generation 36, Iteration 211883.0
NODE_COORD_SECTION
1 -6.606464 28.849086
2 -1.546540 -2.499989
3 -2.081933 -1.928219
4 -1.844942 -2.732853
5 -1.807693 -1.309126
6 -0.745644 -1.429927
7 -1.556641 -2.494994
8 -2.372400 -2.309916
9 -1.439341 -2.294215
10 -1.498929 -2.405994
11 -2.183337 -0.637707
12 -2.306535 -2.237094
13 -2.242841 -2.167811
14 0.544217 -1.946373
15 -2.957354 3.584730
16 38.811421 3.540762
17 -3.235550 -3.336480
18 -2.221572 -2.047501
19 -2.204239 -1.957694
20 -0.503681 -2.238687
EOF