NAME: distribution-uniform_generation_type-euclidean_city_size-20_range-25.0_mutation_type-random_sampling_generation-99_iteration-92.0
TYPE: TSP
DIMENSION: 20
EDGE_WEIGHT_TYPE: EUC_2D
COMMENT: Generation 99, Iteration 92.0
NODE_COORD_SECTION
1 0.705725 1.565597
2 2.126941 -0.762704
3 -0.140721 4.402853
4 -0.739395 -1.676062
5 1.626012 -4.238140
6 -1.657915 -2.952961
7 -3.463352 4.162834
8 -1.399502 -3.207313
9 0.163060 -1.400588
10 -3.219524 -0.847920
11 1.217833 0.315482
12 2.045886 -2.880517
13 0.920581 2.602008
14 2.695277 3.076623
15 -3.570183 -2.058183
16 -3.849631 1.025445
17 2.415672 -0.283211
18 -0.890043 2.956546
19 6.553001 0.539375
20 -1.539723 -0.339163
EOF