NAME: distribution-uniform_generation_type-euclidean_city_size-30_range-65.0_mutation_type-random_sampling_generation-31_iteration-105120.0
TYPE: TSP
DIMENSION: 30
EDGE_WEIGHT_TYPE: EUC_2D
COMMENT: Generation 31, Iteration 105120.0
NODE_COORD_SECTION
1 -9.407530 5.591164
2 -1.554095 -4.735257
3 1.769440 -3.394024
4 5.464054 6.735880
5 -7.063665 2.548210
6 -2.723219 -0.914387
7 -6.351759 -4.773289
8 4.789099 4.610650
9 7.099767 4.909866
10 -0.298056 -7.327178
11 0.737496 0.018625
12 8.758113 -3.280062
13 -7.660683 0.424885
14 9.704887 -2.782070
15 -3.448784 -7.292489
16 4.079018 -4.784484
17 0.618663 -7.160381
18 -7.455690 4.391465
19 -8.322962 5.447172
20 -4.175689 1.922567
21 -1.925515 14.951922
22 -3.053652 -4.934961
23 3.243479 -4.059217
24 -9.279958 -6.309820
25 3.811323 5.961537
26 6.385857 5.556613
27 4.683717 -1.924581
28 2.653057 -0.519974
29 5.186412 0.487106
30 3.736877 0.634513
EOF