NAME: distribution-uniform_generation_type-euclidean_city_size-30_range-50.0_mutation_type-random_sampling_generation-93_iteration-150071.0
TYPE: TSP
DIMENSION: 30
EDGE_WEIGHT_TYPE: EUC_2D
COMMENT: Generation 93, Iteration 150071.0
NODE_COORD_SECTION
1 -8.382570 1.594701
2 0.887108 4.362239
3 -4.656249 0.779509
4 3.145486 -2.631188
5 -5.496677 4.762960
6 3.411999 -0.795414
7 0.156231 -3.332111
8 -0.072815 -1.593059
9 0.149275 -3.941877
10 -6.988588 -1.735551
11 7.608594 6.384871
12 2.114618 1.233217
13 -2.630286 -7.539239
14 -4.970051 3.425287
15 -5.937513 -2.071837
16 3.602985 3.264883
17 -0.663640 -2.633772
18 6.316195 -4.195099
19 -1.908296 6.693565
20 -0.085830 -7.146714
21 11.022372 0.482512
22 5.721520 -7.696011
23 1.131715 -4.803745
24 -4.635441 -6.489254
25 -1.179488 -0.198444
26 -2.732478 4.645972
27 0.719490 5.780518
28 0.199744 2.527770
29 4.342552 4.841383
30 -0.189961 6.023927
EOF