NAME: distribution-uniform_generation_type-euclidean_city_size-30_range-30.0_mutation_type-random_sampling_generation-36_iteration-195363.0
TYPE: TSP
DIMENSION: 30
EDGE_WEIGHT_TYPE: EUC_2D
COMMENT: Generation 36, Iteration 195363.0
NODE_COORD_SECTION
1 -5.184729 0.419949
2 -4.602913 0.396039
3 0.923855 0.099198
4 -3.379593 -1.597321
5 1.649023 0.263551
6 3.215623 1.243034
7 -2.325319 5.084576
8 -0.132950 -0.030188
9 3.056817 -4.021280
10 3.665787 4.150373
11 -5.664106 3.155332
12 2.922378 -1.303057
13 -4.591799 1.220174
14 2.357926 1.335950
15 4.123097 -0.940729
16 -3.025176 4.280839
17 3.723298 8.761996
18 0.951883 -3.126905
19 -6.546061 -3.543972
20 -0.332067 4.359407
21 -1.693692 0.880890
22 -0.904478 -3.187656
23 3.193426 -3.646969
24 5.309461 0.680235
25 3.046806 -0.649818
26 -1.145921 -2.791714
27 -0.254541 -3.353256
28 0.461500 -3.990451
29 2.262496 -1.654078
30 -1.080033 -2.494152
EOF