NAME: distribution-uniform_generation_type-euclidean_city_size-20_range-65.0_mutation_type-random_sampling_generation-61_iteration-90.0
TYPE: TSP
DIMENSION: 20
EDGE_WEIGHT_TYPE: EUC_2D
COMMENT: Generation 61, Iteration 90.0
NODE_COORD_SECTION
1 3.539545 -0.560086
2 -4.719992 5.979808
3 5.168731 -9.405542
4 2.202688 -7.663389
5 7.287934 0.215907
6 -5.532638 7.107636
7 1.315034 8.572936
8 -3.017774 0.225119
9 -2.900749 10.365347
10 -4.460237 1.061723
11 7.741387 5.442079
12 7.066600 -2.852072
13 -4.292854 0.995790
14 3.973866 -2.373768
15 -7.297242 -1.598129
16 10.180530 -4.038175
17 -13.573404 -8.941604
18 -4.637385 -2.540872
19 4.241245 7.003462
20 -2.285285 -6.996170
EOF