NAME: distribution-lognormal_generation_type-euclidean_city_size-20_range-1.6_mutation_type-random_sampling_generation-33_iteration-109738.0
TYPE: TSP
DIMENSION: 20
EDGE_WEIGHT_TYPE: EUC_2D
COMMENT: Generation 33, Iteration 109738.0
NODE_COORD_SECTION
1 4.206679 1.035704
2 4.213472 1.050940
3 4.231176 1.136314
4 -81.644303 -0.024436
5 4.264291 1.299387
6 4.296541 0.358571
7 4.975550 0.967466
8 4.201016 1.005256
9 4.223031 1.131810
10 4.047100 1.462822
11 4.245950 1.210083
12 4.270231 1.347160
13 5.097659 1.667128
14 4.230861 1.125004
15 4.425161 -18.350986
16 4.289903 0.323029
17 4.270938 1.336675
18 4.673940 0.644146
19 3.170957 0.829512
20 4.309847 0.444417
EOF