NAME: distribution-lognormal_generation_type-euclidean_city_size-20_range-1.0_mutation_type-random_sampling_generation-87_iteration-73.0
TYPE: TSP
DIMENSION: 20
EDGE_WEIGHT_TYPE: EUC_2D
COMMENT: Generation 87, Iteration 73.0
NODE_COORD_SECTION
1 -0.546260 1.135632
2 0.356120 2.541642
3 -1.292528 1.738780
4 -0.310542 2.013535
5 -0.210492 0.490929
6 -3.688329 -7.377821
7 2.956405 1.348565
8 12.427448 -2.688003
9 -1.023340 2.098646
10 -0.771951 1.324447
11 0.692324 1.797279
12 -1.806403 3.432532
13 -1.974755 -6.493370
14 -1.385058 0.093304
15 -2.472404 -0.705624
16 0.787998 -0.904150
17 -0.120492 1.783955
18 -0.567706 -2.761902
19 0.400963 -0.222947
20 -1.450998 1.354572
EOF