NAME: distribution-uniform_generation_type-euclidean_city_size-20_range-20.0_mutation_type-random_sampling_generation-54_iteration-96.0
TYPE: TSP
DIMENSION: 20
EDGE_WEIGHT_TYPE: EUC_2D
COMMENT: Generation 54, Iteration 96.0
NODE_COORD_SECTION
1 -2.384047 -1.288162
2 4.214886 2.083476
3 2.397939 -0.421062
4 -0.054732 0.751567
5 1.456315 3.242933
6 0.902677 -3.876045
7 -0.059568 4.191511
8 0.124096 -4.259937
9 2.998473 -0.018824
10 -1.749170 0.763847
11 -1.412251 2.050668
12 -3.220267 -1.716205
13 -1.777994 2.616341
14 0.994932 -0.443785
15 4.053743 -4.013683
16 4.267994 1.210154
17 -2.308992 3.024808
18 -1.671797 -1.157545
19 -3.132645 -2.387237
20 -3.639592 -0.352820
EOF