NAME: distribution-uniform_generation_type-euclidean_city_size-30_range-60.0_mutation_type-random_sampling_generation-25_iteration-125970.0
TYPE: TSP
DIMENSION: 30
EDGE_WEIGHT_TYPE: EUC_2D
COMMENT: Generation 25, Iteration 125970.0
NODE_COORD_SECTION
1 -3.507428 7.091809
2 -4.543437 -6.731982
3 3.240531 0.584257
4 0.011916 1.618257
5 -5.487875 6.542773
6 -3.757596 0.989216
7 10.159189 -3.120528
8 -0.580015 -4.993868
9 -4.551480 -2.134302
10 -4.370503 3.567672
11 -8.748675 3.728032
12 6.893676 6.955726
13 -2.105997 0.358349
14 2.041212 3.127911
15 -7.469089 0.715882
16 -8.039660 -2.527761
17 -3.187101 -12.123305
18 2.114869 5.637354
19 -0.359630 -2.506553
20 8.054943 -7.130620
21 -3.880835 1.739588
22 7.184243 -6.852978
23 2.338037 1.727300
24 6.957611 10.401709
25 2.581350 3.048808
26 10.158504 -3.144718
27 -6.316111 -6.424207
28 1.461676 -1.575076
29 2.031309 -0.863009
30 1.676366 2.294261
EOF