NAME: distribution-lognormal_generation_type-euclidean_city_size-20_range-0.4_mutation_type-random_sampling_generation-54_iteration-96.0
TYPE: TSP
DIMENSION: 20
EDGE_WEIGHT_TYPE: EUC_2D
COMMENT: Generation 54, Iteration 96.0
NODE_COORD_SECTION
1 -2.538322 2.545509
2 -0.364243 -0.592925
3 0.090804 2.461572
4 -0.279466 -0.419850
5 -2.266754 -1.070511
6 -1.350048 -0.809607
7 -1.228857 0.428339
8 1.892580 1.023731
9 1.713190 0.545816
10 4.015257 -0.911323
11 -0.722718 0.629830
12 0.912531 1.337730
13 0.685043 -1.484277
14 0.761304 -1.608567
15 0.883398 -0.022886
16 -0.020783 1.550453
17 -0.275423 0.092908
18 -0.234853 -1.792717
19 -1.902287 -2.470918
20 0.229648 0.567695
EOF