NAME: distribution-uniform_generation_type-euclidean_city_size-20_range-30.0_mutation_type-random_sampling_generation-5_iteration-88.0
TYPE: TSP
DIMENSION: 20
EDGE_WEIGHT_TYPE: EUC_2D
COMMENT: Generation 5, Iteration 88.0
NODE_COORD_SECTION
1 -1.738306 1.438457
2 2.378572 0.576855
3 -4.587731 1.946621
4 2.641504 1.606219
5 3.539423 0.629382
6 5.929562 2.611482
7 -4.843771 -2.620918
8 -1.369381 -2.385447
9 3.130234 -6.002104
10 -2.830758 7.240140
11 -0.804783 1.222030
12 4.361023 -4.169180
13 -0.890212 5.226406
14 -3.260361 -3.828865
15 -4.857299 -1.090062
16 -1.788694 3.598331
17 3.347520 1.362255
18 -5.292827 -5.141630
19 2.973176 -0.934402
20 3.963109 -1.285570
EOF