NAME: distribution-lognormal_generation_type-euclidean_city_size-20_range-0.4_mutation_type-random_sampling_generation-65_iteration-63.0
TYPE: TSP
DIMENSION: 20
EDGE_WEIGHT_TYPE: EUC_2D
COMMENT: Generation 65, Iteration 63.0
NODE_COORD_SECTION
1 -2.285821 1.684743
2 1.893749 0.946636
3 0.614473 -0.265779
4 -1.165833 1.458666
5 -3.201781 -0.456172
6 -0.877358 0.637551
7 -0.262553 -1.167778
8 2.535183 3.576288
9 1.312351 -1.069824
10 0.430014 1.269315
11 0.462531 0.320249
12 -3.020290 -0.612815
13 0.418366 0.059687
14 -0.823269 0.122594
15 1.682156 -1.929587
16 0.154653 -0.948265
17 1.127310 -2.622644
18 0.584106 -1.140143
19 0.701325 -0.370854
20 -0.279312 0.508132
EOF