NAME: distribution-lognormal_generation_type-euclidean_city_size-20_range-2.2_mutation_type-random_sampling_generation-53_iteration-246193.0
TYPE: TSP
DIMENSION: 20
EDGE_WEIGHT_TYPE: EUC_2D
COMMENT: Generation 53, Iteration 246193.0
NODE_COORD_SECTION
1 0.142607 -5.927389
2 0.034065 -1.603390
3 0.044502 -2.005783
4 0.036262 -1.196113
5 -0.707473 0.486563
6 20.382666 18.828105
7 -20.614828 18.472764
8 0.040557 -2.154590
9 0.105724 -3.623855
10 0.062016 -2.363619
11 0.043222 -2.257118
12 0.045447 -2.049004
13 0.044879 -2.431843
14 0.038233 -1.292998
15 0.036757 -1.217829
16 0.039075 -1.277239
17 0.047123 -2.124012
18 0.034687 -1.130712
19 0.099508 -2.681575
20 0.044971 -2.450363
EOF