NAME: distribution-uniform_generation_type-euclidean_city_size-20_range-25.0_mutation_type-random_sampling_generation-66_iteration-76.0
TYPE: TSP
DIMENSION: 20
EDGE_WEIGHT_TYPE: EUC_2D
COMMENT: Generation 66, Iteration 76.0
NODE_COORD_SECTION
1 -1.475982 1.520868
2 -3.955295 -1.635573
3 -0.413963 4.329372
4 4.265324 2.718362
5 2.457040 -3.265882
6 -0.413990 -1.588101
7 0.553758 -0.199595
8 3.965072 -1.358013
9 3.922944 3.158036
10 -2.164808 4.405315
11 2.186341 -0.625132
12 3.766180 -2.554763
13 -0.935255 2.994081
14 -1.875330 -0.360417
15 0.486986 -5.208841
16 -2.066882 -1.118662
17 -3.699599 0.266616
18 0.546674 2.026932
19 -2.810255 -2.125007
20 -2.338961 -1.379596
EOF