NAME: distribution-lognormal_generation_type-euclidean_city_size-30_range-1.2_mutation_type-random_sampling_generation-15_iteration-245935.0
TYPE: TSP
DIMENSION: 30
EDGE_WEIGHT_TYPE: EUC_2D
COMMENT: Generation 15, Iteration 245935.0
NODE_COORD_SECTION
1 -0.916735 0.325591
2 -0.631914 0.625579
3 -1.750493 -0.744160
4 -2.895567 2.337528
5 -0.489945 -1.432465
6 -0.143711 2.486988
7 -1.625901 0.484026
8 0.204432 1.300291
9 -0.997232 0.631233
10 -0.737351 0.851843
11 -0.452973 1.335803
12 -0.824556 1.045333
13 28.575690 -1.248181
14 -1.036594 1.988241
15 -0.649054 0.651314
16 0.432610 -0.838228
17 -1.559708 0.570807
18 -2.355778 -2.194568
19 -0.921158 1.855147
20 -1.223298 1.049220
21 0.242417 0.039094
22 -1.386360 -0.124621
23 -1.056770 0.451709
24 -0.875754 -0.308596
25 -1.012131 1.895089
26 -1.564282 0.129102
27 -1.267911 0.981473
28 0.664892 1.163319
29 -3.112164 -15.817222
30 -0.632700 0.509313
EOF