NAME: distribution-lognormal_generation_type-euclidean_city_size-20_range-1.8_mutation_type-random_sampling_generation-30_iteration-769375.0
TYPE: TSP
DIMENSION: 20
EDGE_WEIGHT_TYPE: EUC_2D
COMMENT: Generation 30, Iteration 769375.0
NODE_COORD_SECTION
1 74.261746 -0.206830
2 -3.638729 1.211181
3 -4.273460 0.664695
4 -3.651410 1.248863
5 -4.524997 0.923387
6 -2.685744 1.443159
7 -3.629521 1.184185
8 -4.419690 0.148143
9 -3.603261 1.053217
10 -4.211496 0.312023
11 -4.273616 2.466811
12 -3.623883 1.213425
13 -4.339682 1.037751
14 -3.618137 1.112312
15 -3.654229 1.264617
16 -3.670650 0.241806
17 -3.644396 1.229653
18 -4.674656 -18.328747
19 -3.634069 1.231907
20 -4.490122 0.548442
EOF