NAME: distribution-uniform_generation_type-euclidean_city_size-20_range-20.0_mutation_type-random_sampling_generation-25_iteration-69.0
TYPE: TSP
DIMENSION: 20
EDGE_WEIGHT_TYPE: EUC_2D
COMMENT: Generation 25, Iteration 69.0
NODE_COORD_SECTION
1 -3.503212 3.749212
2 -3.642892 -2.416008
3 -5.831662 1.238482
4 1.054588 0.517620
5 0.236736 2.481062
6 1.212877 -2.050048
7 0.248242 -1.769955
8 0.393043 -3.340143
9 -0.000380 -2.154095
10 1.480555 3.486585
11 -0.176081 2.352179
12 -4.344185 -1.377946
13 2.293948 -2.866542
14 3.946487 -0.438875
15 3.417597 0.127638
16 -0.721118 -2.494073
17 2.197550 3.348779
18 1.600140 -0.575572
19 0.651462 4.018057
20 -0.513695 -1.836356
EOF