NAME: distribution-uniform_generation_type-euclidean_city_size-30_range-60.0_mutation_type-random_sampling_generation-59_iteration-228232.0
TYPE: TSP
DIMENSION: 30
EDGE_WEIGHT_TYPE: EUC_2D
COMMENT: Generation 59, Iteration 228232.0
NODE_COORD_SECTION
1 7.475323 -3.915011
2 2.289852 3.296297
3 0.042862 4.751602
4 -5.804899 4.024251
5 -0.330309 -7.226793
6 4.276143 9.333060
7 -1.215623 -1.980535
8 -6.633260 -1.538602
9 2.873244 -2.298675
10 -5.463916 -1.452399
11 -1.456442 -3.119443
12 0.511887 2.674072
13 5.052837 -1.738463
14 -10.468611 -6.558802
15 -1.483840 4.905607
16 2.701752 5.727639
17 6.503253 -7.905763
18 -3.670563 1.107462
19 -5.066081 9.415018
20 12.542692 1.011481
21 -5.098549 -11.353757
22 6.612915 -3.326586
23 -4.894069 -3.476005
24 -1.349283 -4.246352
25 8.949429 -3.061364
26 0.320222 6.021904
27 -1.012815 0.270203
28 -0.071578 8.612503
29 4.218025 -0.407850
30 -10.350600 2.455306
EOF