NAME: distribution-uniform_generation_type-euclidean_city_size-30_range-55.0_mutation_type-random_sampling_generation-14_iteration-249559.0
TYPE: TSP
DIMENSION: 30
EDGE_WEIGHT_TYPE: EUC_2D
COMMENT: Generation 14, Iteration 249559.0
NODE_COORD_SECTION
1 2.783841 -0.738762
2 6.196689 4.477539
3 -3.526815 -2.205379
4 1.564743 -4.244446
5 -0.110069 -1.541945
6 -1.033097 2.802685
7 6.594755 -3.740643
8 -3.813709 5.129152
9 6.701547 1.541456
10 0.454002 -8.371903
11 1.417260 -1.886235
12 4.008500 -3.260988
13 5.521990 1.460621
14 4.725486 -0.095610
15 0.976998 6.718480
16 5.915600 -1.204600
17 6.466760 1.165112
18 -6.587646 -8.957370
19 -0.630629 2.370493
20 -3.613734 -2.355456
21 -1.376886 -4.969148
22 -6.425931 2.746330
23 -7.103488 -1.940207
24 -5.649270 6.890720
25 -6.778896 6.203305
26 -7.254395 0.542757
27 -2.284608 -5.867542
28 1.043134 9.402237
29 -2.714937 -1.073636
30 4.532809 1.002981
EOF