NAME: distribution-uniform_generation_type-euclidean_city_size-30_range-95.0_mutation_type-random_sampling_generation-49_iteration-106499.0
TYPE: TSP
DIMENSION: 30
EDGE_WEIGHT_TYPE: EUC_2D
COMMENT: Generation 49, Iteration 106499.0
NODE_COORD_SECTION
1 1.638712 -10.117643
2 -2.427136 6.990852
3 0.094640 -12.020874
4 3.375812 -5.020268
5 -4.667494 -4.873827
6 10.871634 2.620498
7 -12.635373 -0.017059
8 3.884233 9.604045
9 -5.086028 2.036438
10 -10.138893 2.901025
11 -7.866555 -3.591426
12 -2.727129 -2.843570
13 -12.913272 -5.854200
14 -1.278624 13.015913
15 11.937838 3.885516
16 5.008652 -1.622558
17 -1.771862 21.775325
18 4.906903 -5.496093
19 11.448214 10.517567
20 7.613906 -9.311441
21 3.096894 6.955359
22 -0.286327 -0.658891
23 -14.346017 2.149594
24 16.494351 -3.308975
25 6.260389 -6.496576
26 -8.155801 0.362781
27 1.968393 3.969073
28 2.545383 -5.012304
29 -7.090660 -0.043046
30 0.245218 -10.495238
EOF