NAME: distribution-uniform_generation_type-euclidean_city_size-20_range-15.0_mutation_type-random_sampling_generation-51_iteration-87.0
TYPE: TSP
DIMENSION: 20
EDGE_WEIGHT_TYPE: EUC_2D
COMMENT: Generation 51, Iteration 87.0
NODE_COORD_SECTION
1 1.418766 0.066789
2 2.189743 -0.522978
3 1.009987 0.655196
4 0.129348 -0.120323
5 -1.573445 0.077584
6 -2.690357 -0.508766
7 -2.126059 0.522520
8 1.397101 1.214246
9 -0.640309 0.357282
10 -0.555470 0.857833
11 2.212978 -2.628688
12 -2.833047 0.756766
13 0.421949 -1.801213
14 -0.844516 -2.796548
15 -0.173715 1.477070
16 3.195308 2.160966
17 0.164768 -0.098919
18 -0.412091 3.015611
19 0.213433 -1.541523
20 -0.504373 -1.142904
EOF