NAME: distribution-uniform_generation_type-euclidean_city_size-20_range-10.0_mutation_type-random_sampling_generation-54_iteration-102.0
TYPE: TSP
DIMENSION: 20
EDGE_WEIGHT_TYPE: EUC_2D
COMMENT: Generation 54, Iteration 102.0
NODE_COORD_SECTION
1 -2.685743 -2.053069
2 0.664859 0.396507
3 0.229034 0.240124
4 1.914318 -2.758779
5 -0.267198 -0.827149
6 0.777019 -0.107195
7 -0.125509 3.022290
8 -1.628726 1.996069
9 0.988771 0.960482
10 2.185313 -0.552375
11 -0.755715 -2.189077
12 2.413689 0.594679
13 0.833357 1.837523
14 -1.432933 1.538541
15 0.659448 -1.206532
16 2.074456 -0.341604
17 -1.778173 -0.825636
18 -0.134286 0.667139
19 -2.320824 -0.389648
20 -1.611159 -0.002291
EOF