NAME: distribution-lognormal_generation_type-euclidean_city_size-20_range-2.2_mutation_type-random_sampling_generation-44_iteration-174113.0
TYPE: TSP
DIMENSION: 20
EDGE_WEIGHT_TYPE: EUC_2D
COMMENT: Generation 44, Iteration 174113.0
NODE_COORD_SECTION
1 2.892097 -1.581635
2 2.529138 0.030811
3 2.439647 -2.572101
4 2.945493 15.069466
5 2.784181 -0.695668
6 2.955326 -4.471025
7 3.261333 -2.644927
8 2.788936 -0.742289
9 2.183513 -0.392153
10 2.721534 -0.835503
11 2.833209 -0.199257
12 2.790813 -0.926564
13 2.963956 -0.374131
14 -50.842501 0.037658
15 1.580446 1.095098
16 2.050005 -1.051401
17 2.937900 -0.569274
18 1.958951 -0.578385
19 3.250537 2.164689
20 2.975485 -0.763410
EOF