NAME: distribution-lognormal_generation_type-euclidean_city_size-20_range-0.6_mutation_type-random_sampling_generation-11_iteration-90.0
TYPE: TSP
DIMENSION: 20
EDGE_WEIGHT_TYPE: EUC_2D
COMMENT: Generation 11, Iteration 90.0
NODE_COORD_SECTION
1 -2.365667 0.113089
2 3.096111 1.668831
3 2.204015 -2.514730
4 -3.872066 1.014125
5 -1.922252 0.981031
6 2.235367 -0.246651
7 0.510498 -2.450632
8 1.454482 2.613004
9 -1.643518 -1.158111
10 -0.131299 -1.313728
11 0.876658 -3.210901
12 -0.802018 -0.986501
13 0.641651 0.027692
14 -2.279726 5.387844
15 -3.037862 -1.558661
16 -0.303703 0.925525
17 -0.155694 -0.445201
18 -0.250817 -0.821400
19 4.832278 2.586688
20 0.913561 -0.611314
EOF