NAME: distribution-uniform_generation_type-euclidean_city_size-30_range-90.0_mutation_type-random_sampling_generation-3_iteration-106462.0
TYPE: TSP
DIMENSION: 30
EDGE_WEIGHT_TYPE: EUC_2D
COMMENT: Generation 3, Iteration 106462.0
NODE_COORD_SECTION
1 11.116677 -5.999673
2 5.449164 22.065698
3 -13.759047 -10.675670
4 14.939045 -6.420032
5 3.196743 -3.692624
6 -5.983063 -12.353424
7 4.955339 9.482476
8 3.735922 -12.318017
9 -7.943669 6.098333
10 3.670746 5.428999
11 4.278672 0.126533
12 -4.876653 -0.341501
13 -1.573389 5.212946
14 8.809988 3.978580
15 6.817044 -2.971779
16 -8.455965 8.131214
17 8.360832 -5.430307
18 4.966979 -1.493571
19 -8.637731 -0.008077
20 -7.539080 6.759098
21 4.496914 0.000237
22 6.978164 -0.177665
23 -9.256104 4.630553
24 9.552822 0.088848
25 -10.664536 -7.236999
26 -11.393097 7.309515
27 -1.410150 5.253467
28 -13.420025 -7.629728
29 0.979496 0.405825
30 2.607961 -8.223254
EOF