NAME: distribution-uniform_generation_type-euclidean_city_size-20_range-25.0_mutation_type-random_sampling_generation-31_iteration-100.0
TYPE: TSP
DIMENSION: 20
EDGE_WEIGHT_TYPE: EUC_2D
COMMENT: Generation 31, Iteration 100.0
NODE_COORD_SECTION
1 -4.980580 -2.471747
2 -1.038477 1.511374
3 1.352010 -5.367926
4 -2.082552 1.598791
5 -1.601079 2.044503
6 -4.620525 0.786061
7 2.787450 2.584594
8 2.176833 -1.591828
9 4.301865 -0.227298
10 0.998003 -0.342536
11 2.837743 -0.866716
12 -2.678613 -5.824755
13 1.258473 2.500681
14 -0.641894 -0.100008
15 -1.394424 0.087426
16 -2.630898 2.275905
17 -0.994772 1.039959
18 1.864684 -2.381191
19 4.967914 -0.206618
20 0.118837 4.951328
EOF