NAME: distribution-uniform_generation_type-euclidean_city_size-20_range-25.0_mutation_type-random_sampling_generation-36_iteration-91.0
TYPE: TSP
DIMENSION: 20
EDGE_WEIGHT_TYPE: EUC_2D
COMMENT: Generation 36, Iteration 91.0
NODE_COORD_SECTION
1 -0.890676 -1.700723
2 -1.664207 2.862240
3 2.278095 4.192856
4 -1.023762 -1.978003
5 2.009958 -3.824139
6 3.722388 0.266427
7 -1.064542 -3.341452
8 3.600829 -0.216100
9 -4.281949 2.844746
10 -0.790958 -5.285084
11 4.380316 1.510014
12 -0.491922 1.353124
13 1.485092 -1.124142
14 2.797424 0.430779
15 -3.632623 1.070163
16 -0.552163 0.769410
17 -4.641446 -2.153013
18 -0.670727 2.513420
19 1.559384 -0.553032
20 -2.128509 2.362509
EOF